
     Program PWSCF v.7.5 starts on  9Jul2026 at  0:11:10 

     This program is part of the open-source Quantum ESPRESSO suite
     for quantum simulation of materials; please cite
         "P. Giannozzi et al., J. Phys.:Condens. Matter 21 395502 (2009);
         "P. Giannozzi et al., J. Phys.:Condens. Matter 29 465901 (2017);
         "P. Giannozzi et al., J. Chem. Phys. 152 154105 (2020);
          URL http://www.quantum-espresso.org", 
     in publications or presentations arising from this work. More details at
     http://www.quantum-espresso.org/quote

     Parallel version (MPI), running on     8 processors

     MPI processes distributed on     1 nodes
     27889 MiB available memory on the printing compute node when the environment starts

     Reading input from MoSt_1V_relax.in

     Current dimensions of program PWSCF are:
     Max number of different atomic species (ntypx) = 10
     Max number of k-points (npk) =  40000
     Max angular momentum in pseudopotentials (lmaxx) =  4
     Message from routine setup:
     using ibrav=0 with symmetry is DISCOURAGED, use correct ibrav instead

     R & G space division:  proc/nbgrp/npool/nimage =       8
     Subspace diagonalization in iterative solution of the eigenvalue problem:
     one sub-group per band group will be used
     scalapack distributed-memory algorithm (size of sub-group:  2*  2 procs)


     Parallelization info
     --------------------
     sticks:   dense  smooth     PW     G-vecs:    dense   smooth      PW
     Min        2503    1301    339               336908   126317   16843
     Max        2504    1302    340               336911   126322   16850
     Sum       20029   10411   2713              2695269  1010563  134763

     Using Slab Decomposition



     bravais-lattice index     =            0
     lattice parameter (alat)  =      24.1153  a.u.
     unit-cell volume          =   14275.9760 (a.u.)^3
     number of atoms/cell      =           47
     number of atomic types    =            2
     number of electrons       =       410.00
     number of Kohn-Sham states=          246
     kinetic-energy cutoff     =      65.0000  Ry
     charge density cutoff     =     500.0000  Ry
     scf convergence threshold =      1.0E-08
     mixing beta               =       0.3000
     number of iterations used =            8  plain     mixing
     energy convergence thresh.=      1.0E-04
     force convergence thresh. =      1.0E-03
     Exchange-correlation=  SLA  PW   PBX  PBC
                           (   1   4   3   4   0   0   0)
     nstep                     =           50


     celldm(1)=  24.115292  celldm(2)=   0.000000  celldm(3)=   0.000000
     celldm(4)=   0.000000  celldm(5)=   0.000000  celldm(6)=   0.000000

     crystal axes: (cart. coord. in units of alat)
               a(1) = (   1.000000   0.000000   0.000000 )  
               a(2) = (  -0.500000   0.866025   0.000000 )  
               a(3) = (   0.000000   0.000000   1.175432 )  

     reciprocal axes: (cart. coord. in units 2 pi/alat)
               b(1) = (  1.000000  0.577350 -0.000000 )  
               b(2) = (  0.000000  1.154701  0.000000 )  
               b(3) = (  0.000000 -0.000000  0.850751 )  


     PseudoPot. # 1 for Mo read from file:
     /home/nihal/Desktop/pseudos/mo_pbe_v1.uspp.F.UPF
     MD5 check sum: 30c4dcd161f5d35cd49bb5239c51a633
     Pseudo is Ultrasoft + core correction, Zval = 14.0
     Generated by new atomic code, or converted to UPF format
     Using radial grid of  889 points,  6 beta functions with: 
                l(1) =   0
                l(2) =   0
                l(3) =   1
                l(4) =   1
                l(5) =   2
                l(6) =   2
     Q(r) pseudized with  6 coefficients,  rinner =    1.000   1.000   1.000
                                                       1.000   1.000

     PseudoPot. # 2 for S  read from file:
     /home/nihal/Desktop/pseudos/s_pbe_v1.4.uspp.F.UPF
     MD5 check sum: 88d86576ff6df21479756cfb9bdac1df
     Pseudo is Ultrasoft + core correction, Zval =  6.0
     Generated by new atomic code, or converted to UPF format
     Using radial grid of  907 points,  6 beta functions with: 
                l(1) =   0
                l(2) =   0
                l(3) =   1
                l(4) =   1
                l(5) =   2
                l(6) =   2
     Q(r) pseudized with  8 coefficients,  rinner =    1.300   1.300   1.300
                                                       1.300   1.300

     atomic species   valence    mass     pseudopotential
     Mo               14.00    95.95000     Mo( 1.00)
     S                 6.00    32.06500     S ( 1.00)

     Starting magnetic structure 
     atomic species   magnetization
     Mo              0.200
     S               0.000

      6 Sym. Ops. (no inversion) found ( 4 have fractional translation)


                                    s                        frac. trans.

      isym =  1     identity                                     

 cryst.   s( 1) = (     1          0          0      )
                  (     0          1          0      )
                  (     0          0          1      )

 cart.    s( 1) = (  1.0000000  0.0000000  0.0000000 )
                  (  0.0000000  1.0000000  0.0000000 )
                  (  0.0000000  0.0000000  1.0000000 )


      isym =  2     120 deg rotation - cryst. axis [0,0,1]       

 cryst.   s( 2) = (     0          1          0      )    f =(  0.0000000 )
                  (    -1         -1          0      )       ( -0.2499999 )
                  (     0          0          1      )       (  0.0000000 )

 cart.    s( 2) = ( -0.5000000 -0.8660254  0.0000000 )    f =(  0.1250000 )
                  (  0.8660254 -0.5000000  0.0000000 )       ( -0.2165062 )
                  (  0.0000000  0.0000000  1.0000000 )       (  0.0000000 )


      isym =  3     120 deg rotation - cryst. axis [0,0,-1]      

 cryst.   s( 3) = (    -1         -1          0      )    f =(  0.2500000 )
                  (     1          0          0      )       (  0.0000001 )
                  (     0          0          1      )       (  0.0000000 )

 cart.    s( 3) = ( -0.5000000  0.8660254  0.0000000 )    f =(  0.2500000 )
                  ( -0.8660254 -0.5000000  0.0000000 )       (  0.0000001 )
                  (  0.0000000  0.0000000  1.0000000 )       (  0.0000000 )


      isym =  4     inv. 180 deg rotation - cart. axis [1,0,0]   

 cryst.   s( 4) = (    -1          0          0      )    f =(  0.2500001 )
                  (     1          1          0      )       (  0.0000001 )
                  (     0          0          1      )       (  0.0000000 )

 cart.    s( 4) = ( -1.0000000  0.0000000  0.0000000 )    f =(  0.2500000 )
                  (  0.0000000  1.0000000  0.0000000 )       (  0.0000001 )
                  (  0.0000000  0.0000000  1.0000000 )       (  0.0000000 )


      isym =  5     inv. 180 deg rotation - cryst. axis [0,1,0]  

 cryst.   s( 5) = (     1          1          0      )    f =(  0.0000000 )
                  (     0         -1          0      )       ( -0.2499999 )
                  (     0          0          1      )       (  0.0000000 )

 cart.    s( 5) = (  0.5000000  0.8660254  0.0000000 )    f =(  0.1250000 )
                  (  0.8660254 -0.5000000  0.0000000 )       ( -0.2165062 )
                  (  0.0000000  0.0000000  1.0000000 )       (  0.0000000 )


      isym =  6     inv. 180 deg rotation - cryst. axis [1,1,0]  

 cryst.   s( 6) = (     0         -1          0      )
                  (    -1          0          0      )
                  (     0          0          1      )

 cart.    s( 6) = (  0.5000000 -0.8660254  0.0000000 )
                  ( -0.8660254 -0.5000000  0.0000000 )
                  (  0.0000000  0.0000000  1.0000000 )


   Cartesian axes

     site n.     atom                  positions (alat units)
         1        Mo     tau(   1) = (   0.1254678   0.0729458   0.8758133  )
         2        Mo     tau(   2) = (   0.0009069   0.2886917   0.8758133  )
         3        Mo     tau(   3) = (  -0.1250001   0.5047347   0.8749037  )
         4        Mo     tau(   4) = (  -0.2503870   0.7219112   0.8749037  )
         5        Mo     tau(   5) = (   0.3750000   0.0749194   0.8736322  )
         6        Mo     tau(   6) = (   0.2535358   0.2907165   0.8707750  )
         7        Mo     tau(   7) = (   0.1273822   0.5038061   0.8736322  )
         8        Mo     tau(   8) = (   0.0003869   0.7219112   0.8749037  )
         9        Mo     tau(   9) = (   0.6245321   0.0729459   0.8758133  )
        10        Mo     tau(  10) = (   0.4964641   0.2907165   0.8707750  )
        11        Mo     tau(  11) = (   0.3750000   0.5010987   0.8707750  )
        12        Mo     tau(  12) = (   0.2504391   0.7208941   0.8758133  )
        13        Mo     tau(  13) = (   0.8750001   0.0721687   0.8761687  )
        14        Mo     tau(  14) = (   0.7490931   0.2886917   0.8758133  )
        15        Mo     tau(  15) = (   0.6226179   0.5038063   0.8736322  )
        16        Mo     tau(  16) = (   0.4995609   0.7208942   0.8758133  )
        17        S      tau(  17) = (   0.0005539   0.1446575   0.9982669  )
        18        S      tau(  18) = (  -0.1250000   0.3610975   0.9977927  )
        19        S      tau(  19) = (  -0.2515026   0.5764827   0.9959998  )
        20        S      tau(  20) = (  -0.3747804   0.7937297   0.9977928  )
        21        S      tau(  21) = (   0.2532277   0.1494786   0.9958461  )
        22        S      tau(  22) = (   0.1310661   0.3610687   0.9958461  )
        23        S      tau(  23) = (   0.0015027   0.5764827   0.9959998  )
        24        S      tau(  24) = (  -0.1250000   0.7955918   0.9959998  )
        25        S      tau(  25) = (   0.4967723   0.1494784   0.9958462  )
        26        S      tau(  26) = (   0.2528383   0.5719845   0.9958461  )
        27        S      tau(  27) = (   0.1247804   0.7937298   0.9977927  )
        28        S      tau(  28) = (   0.7494460   0.1446574   0.9982669  )
        29        S      tau(  29) = (   0.6189340   0.3610687   0.9958462  )
        30        S      tau(  30) = (   0.4971616   0.5719845   0.9958461  )
        31        S      tau(  31) = (   0.3750000   0.7932169   0.9982669  )
        32        S      tau(  32) = (   0.0002816   0.1445003   0.7540713  )
        33        S      tau(  33) = (  -0.1250000   0.3598854   0.7537786  )
        34        S      tau(  34) = (  -0.2504629   0.5770830   0.7527366  )
        35        S      tau(  35) = (  -0.3758300   0.7943358   0.7537784  )
        36        S      tau(  36) = (   0.2490971   0.1461045   0.7512189  )
        37        S      tau(  37) = (   0.1260787   0.3591785   0.7512190  )
        38        S      tau(  38) = (   0.0004629   0.5770830   0.7527366  )
        39        S      tau(  39) = (  -0.1250000   0.7943911   0.7527366  )
        40        S      tau(  40) = (   0.5009029   0.1461043   0.7512188  )
        41        S      tau(  41) = (   0.3749999   0.3608440   0.7482012  )
        42        S      tau(  42) = (   0.2519817   0.5772488   0.7512190  )
        43        S      tau(  43) = (   0.1258301   0.7943358   0.7537786  )
        44        S      tau(  44) = (   0.7497184   0.1445002   0.7540714  )
        45        S      tau(  45) = (   0.6239214   0.3591786   0.7512188  )
        46        S      tau(  46) = (   0.4980183   0.5772488   0.7512189  )
        47        S      tau(  47) = (   0.3750000   0.7935314   0.7540713  )

   Crystallographic axes

     site n.     atom                  positions (cryst. coord.)
         1        Mo     tau(   1) = (  0.1675831  0.0842306  0.7450989  )
         2        Mo     tau(   2) = (  0.1675832  0.3333525  0.7450989  )
         3        Mo     tau(   3) = (  0.1664086  0.5828175  0.7443251  )
         4        Mo     tau(   4) = (  0.1664087  0.8335913  0.7443251  )
         5        Mo     tau(   5) = (  0.4182547  0.0865095  0.7432434  )
         6        Mo     tau(   6) = (  0.4213810  0.3356905  0.7408126  )
         7        Mo     tau(   7) = (  0.4182548  0.5817452  0.7432434  )
         8        Mo     tau(   8) = (  0.4171825  0.8335913  0.7443251  )
         9        Mo     tau(   9) = (  0.6666475  0.0842307  0.7450989  )
        10        Mo     tau(  10) = (  0.6643094  0.3356906  0.7408126  )
        11        Mo     tau(  11) = (  0.6643095  0.5786190  0.7408126  )
        12        Mo     tau(  12) = (  0.6666475  0.8324168  0.7450989  )
        13        Mo     tau(  13) = (  0.9166667  0.0833333  0.7454013  )
        14        Mo     tau(  14) = (  0.9157694  0.3333525  0.7450989  )
        15        Mo     tau(  15) = (  0.9134906  0.5817454  0.7432434  )
        16        Mo     tau(  16) = (  0.9157694  0.8324169  0.7450989  )
        17        S      tau(  17) = (  0.0840720  0.1670361  0.8492764  )
        18        S      tau(  18) = (  0.0834797  0.4169594  0.8488730  )
        19        S      tau(  19) = (  0.0813298  0.6656649  0.8473477  )
        20        S      tau(  20) = (  0.0834797  0.9165202  0.8488731  )
        21        S      tau(  21) = (  0.3395292  0.1726030  0.8472170  )
        22        S      tau(  22) = (  0.3395292  0.4169262  0.8472169  )
        23        S      tau(  23) = (  0.3343352  0.6656649  0.8473477  )
        24        S      tau(  24) = (  0.3343351  0.9186703  0.8473477  )
        25        S      tau(  25) = (  0.5830737  0.1726027  0.8472170  )
        26        S      tau(  26) = (  0.5830738  0.6604709  0.8472169  )
        27        S      tau(  27) = (  0.5830405  0.9165203  0.8488730  )
        28        S      tau(  28) = (  0.8329640  0.1670360  0.8492764  )
        29        S      tau(  29) = (  0.8273972  0.4169263  0.8472170  )
        30        S      tau(  30) = (  0.8273970  0.6604709  0.8472170  )
        31        S      tau(  31) = (  0.8329639  0.9159280  0.8492764  )
        32        S      tau(  32) = (  0.0837089  0.1668545  0.6415268  )
        33        S      tau(  33) = (  0.0827799  0.4155599  0.6412778  )
        34        S      tau(  34) = (  0.0827161  0.6663581  0.6403913  )
        35        S      tau(  35) = (  0.0827800  0.9172200  0.6412776  )
        36        S      tau(  36) = (  0.3334505  0.1687069  0.6391001  )
        37        S      tau(  37) = (  0.3334505  0.4147436  0.6391002  )
        38        S      tau(  38) = (  0.3336420  0.6663581  0.6403913  )
        39        S      tau(  39) = (  0.3336419  0.9172839  0.6403913  )
        40        S      tau(  40) = (  0.5852562  0.1687067  0.6391000  )
        41        S      tau(  41) = (  0.5833332  0.4166667  0.6365328  )
        42        S      tau(  42) = (  0.5852564  0.6665495  0.6391002  )
        43        S      tau(  43) = (  0.5844401  0.9172200  0.6412778  )
        44        S      tau(  44) = (  0.8331456  0.1668544  0.6415269  )
        45        S      tau(  45) = (  0.8312933  0.4147437  0.6391000  )
        46        S      tau(  46) = (  0.8312931  0.6665495  0.6391001  )
        47        S      tau(  47) = (  0.8331455  0.9162912  0.6415268  )

     number of k points=     7  Fermi-Dirac smearing, width (Ry)=  0.0050
                       cart. coord. in units 2pi/alat
        k(    1) = (   0.0000000   0.0000000   0.0000000), wk =   0.0277778
        k(    2) = (   0.0000000   0.1924501   0.0000000), wk =   0.1666667
        k(    3) = (   0.0000000   0.3849002   0.0000000), wk =   0.1666667
        k(    4) = (   0.0000000  -0.5773503   0.0000000), wk =   0.0833333
        k(    5) = (   0.1666667   0.2886751   0.0000000), wk =   0.1666667
        k(    6) = (   0.1666667   0.4811252   0.0000000), wk =   0.3333333
        k(    7) = (   0.3333333   0.5773503   0.0000000), wk =   0.0555556

                       cryst. coord.
        k(    1) = (   0.0000000   0.0000000   0.0000000), wk =   0.0277778
        k(    2) = (   0.0000000   0.1666667   0.0000000), wk =   0.1666667
        k(    3) = (   0.0000000   0.3333333   0.0000000), wk =   0.1666667
        k(    4) = (   0.0000000  -0.5000000   0.0000000), wk =   0.0833333
        k(    5) = (   0.1666667   0.1666667   0.0000000), wk =   0.1666667
        k(    6) = (   0.1666667   0.3333333   0.0000000), wk =   0.3333333
        k(    7) = (   0.3333333   0.3333333   0.0000000), wk =   0.0555556

     Dense  grid:  2695269 G-vectors     FFT dimensions: ( 180, 180, 216)

     Smooth grid:  1010563 G-vectors     FFT dimensions: ( 128, 128, 150)

     Dynamical RAM for                 wfc:      59.27 MB

     Dynamical RAM for     wfc (w. buffer):     889.11 MB

     Dynamical RAM for           str. fact:      10.28 MB

     Dynamical RAM for           local pot:       0.00 MB

     Dynamical RAM for          nlocal pot:     203.85 MB

     Dynamical RAM for                qrad:       3.59 MB

     Dynamical RAM for          rho,v,vnew:      70.89 MB

     Dynamical RAM for               rhoin:      23.63 MB

     Dynamical RAM for            rho*nmix:     164.51 MB

     Dynamical RAM for           G-vectors:      20.24 MB

     Dynamical RAM for          h,s,v(r/c):      99.73 MB

     Dynamical RAM for          <psi|beta>:       3.18 MB

     Dynamical RAM for                 psi:     711.29 MB

     Dynamical RAM for                hpsi:     711.29 MB

     Dynamical RAM for                spsi:     711.29 MB

     Dynamical RAM for      wfcinit/wfcrot:     119.94 MB

     Dynamical RAM for           addusdens:    1120.70 MB

     Dynamical RAM for          addusforce:    1429.39 MB

     Estimated static dynamical RAM per process >       1.25 GB

     Estimated max dynamical RAM per process >       3.59 GB

     Estimated total dynamical RAM >      28.74 GB
     Generating pointlists ...
     new r_m :   0.0768 (alat units)  1.8529 (a.u.) for type    1
     new r_m :   0.0768 (alat units)  1.8529 (a.u.) for type    2

     Initial potential from superposition of free atoms

     starting charge     409.9819, renormalised to     410.0000

     negative rho (up, down):  1.811E-03 1.116E-03
     Starting wfcs are  332 randomized atomic wfcs

     total cpu time spent up to now is       90.8 secs

     Self-consistent Calculation

     iteration #  1     ecut=    65.00 Ry     beta= 0.30
     Davidson diagonalization with overlap

---- Real-time Memory Report at c_bands before calling an iterative solver
          1416 MiB given to the printing process from OS
             0 MiB allocation reported by mallinfo(arena+hblkhd)
         17205 MiB available memory on the node where the printing process lives
------------------
     ethr =  1.00E-02,  avg # of iterations =  2.0

     Threshold (ethr) on eigenvalues was too large:
     Diagonalizing with lowered threshold

     Davidson diagonalization with overlap

---- Real-time Memory Report at c_bands before calling an iterative solver
          2454 MiB given to the printing process from OS
             0 MiB allocation reported by mallinfo(arena+hblkhd)
         15044 MiB available memory on the node where the printing process lives
------------------
     ethr =  6.14E-04,  avg # of iterations =  2.1

     negative rho (up, down):  1.754E-03 1.219E-03

     total cpu time spent up to now is      507.5 secs

     total energy              =   -2978.57886289 Ry
     estimated scf accuracy    <       2.55876834 Ry

     total magnetization       =     1.94 Bohr mag/cell
     absolute magnetization    =    13.11 Bohr mag/cell

     iteration #  2     ecut=    65.00 Ry     beta= 0.30
     Davidson diagonalization with overlap

---- Real-time Memory Report at c_bands before calling an iterative solver
          2490 MiB given to the printing process from OS
             0 MiB allocation reported by mallinfo(arena+hblkhd)
         14369 MiB available memory on the node where the printing process lives
------------------
     ethr =  6.24E-04,  avg # of iterations =  2.0

     negative rho (up, down):  1.693E-03 1.281E-03

     total cpu time spent up to now is      702.1 secs

     total energy              =   -2978.88342697 Ry
     estimated scf accuracy    <       1.12199911 Ry

     total magnetization       =     0.15 Bohr mag/cell
     absolute magnetization    =    10.16 Bohr mag/cell

     iteration #  3     ecut=    65.00 Ry     beta= 0.30
     Davidson diagonalization with overlap

---- Real-time Memory Report at c_bands before calling an iterative solver
          2498 MiB given to the printing process from OS
             0 MiB allocation reported by mallinfo(arena+hblkhd)
         13981 MiB available memory on the node where the printing process lives
------------------
     ethr =  2.74E-04,  avg # of iterations =  4.6

     negative rho (up, down):  1.656E-03 1.336E-03

     total cpu time spent up to now is      913.3 secs

     total energy              =   -2978.95031181 Ry
     estimated scf accuracy    <       2.15545654 Ry

     total magnetization       =     2.31 Bohr mag/cell
     absolute magnetization    =     9.47 Bohr mag/cell

     iteration #  4     ecut=    65.00 Ry     beta= 0.30
     Davidson diagonalization with overlap

---- Real-time Memory Report at c_bands before calling an iterative solver
          2506 MiB given to the printing process from OS
             0 MiB allocation reported by mallinfo(arena+hblkhd)
         14012 MiB available memory on the node where the printing process lives
------------------
     ethr =  2.74E-04,  avg # of iterations =  5.6

     negative rho (up, down):  1.623E-03 1.369E-03

     total cpu time spent up to now is     1114.8 secs

     total energy              =   -2979.29756805 Ry
     estimated scf accuracy    <       0.41253061 Ry

     total magnetization       =     0.01 Bohr mag/cell
     absolute magnetization    =     7.28 Bohr mag/cell

     iteration #  5     ecut=    65.00 Ry     beta= 0.30
     Davidson diagonalization with overlap

---- Real-time Memory Report at c_bands before calling an iterative solver
          2513 MiB given to the printing process from OS
             0 MiB allocation reported by mallinfo(arena+hblkhd)
         14167 MiB available memory on the node where the printing process lives
------------------
     ethr =  1.01E-04,  avg # of iterations =  4.3

     negative rho (up, down):  1.583E-03 1.385E-03

     total cpu time spent up to now is     1308.4 secs

     total energy              =   -2979.38881204 Ry
     estimated scf accuracy    <       0.09064492 Ry

     total magnetization       =     0.01 Bohr mag/cell
     absolute magnetization    =     5.67 Bohr mag/cell

     iteration #  6     ecut=    65.00 Ry     beta= 0.30
     Davidson diagonalization with overlap

---- Real-time Memory Report at c_bands before calling an iterative solver
          2521 MiB given to the printing process from OS
             0 MiB allocation reported by mallinfo(arena+hblkhd)
         13963 MiB available memory on the node where the printing process lives
------------------
     c_bands:  1 eigenvalues not converged
     ethr =  2.21E-05,  avg # of iterations = 12.4

     negative rho (up, down):  1.544E-03 1.395E-03

     total cpu time spent up to now is     1605.3 secs

     total energy              =   -2979.41211048 Ry
     estimated scf accuracy    <       0.05876900 Ry

     total magnetization       =     0.00 Bohr mag/cell
     absolute magnetization    =     2.69 Bohr mag/cell

     iteration #  7     ecut=    65.00 Ry     beta= 0.30
     Davidson diagonalization with overlap

---- Real-time Memory Report at c_bands before calling an iterative solver
          2533 MiB given to the printing process from OS
             0 MiB allocation reported by mallinfo(arena+hblkhd)
         13888 MiB available memory on the node where the printing process lives
------------------
     ethr =  1.43E-05,  avg # of iterations =  3.1

     negative rho (up, down):  1.511E-03 1.402E-03

     total cpu time spent up to now is     1792.4 secs

     total energy              =   -2979.42025830 Ry
     estimated scf accuracy    <       0.00901520 Ry

     total magnetization       =     0.00 Bohr mag/cell
     absolute magnetization    =     2.11 Bohr mag/cell

     iteration #  8     ecut=    65.00 Ry     beta= 0.30
     Davidson diagonalization with overlap

---- Real-time Memory Report at c_bands before calling an iterative solver
          2540 MiB given to the printing process from OS
             0 MiB allocation reported by mallinfo(arena+hblkhd)
         13897 MiB available memory on the node where the printing process lives
------------------
     ethr =  2.20E-06,  avg # of iterations =  9.3

     negative rho (up, down):  1.488E-03 1.409E-03

     total cpu time spent up to now is     2064.1 secs

     total energy              =   -2979.42286854 Ry
     estimated scf accuracy    <       0.00356862 Ry

     total magnetization       =     0.00 Bohr mag/cell
     absolute magnetization    =     1.54 Bohr mag/cell

     iteration #  9     ecut=    65.00 Ry     beta= 0.30
     Davidson diagonalization with overlap

---- Real-time Memory Report at c_bands before calling an iterative solver
          2548 MiB given to the printing process from OS
             0 MiB allocation reported by mallinfo(arena+hblkhd)
         13540 MiB available memory on the node where the printing process lives
------------------
     ethr =  8.70E-07,  avg # of iterations =  2.8

     negative rho (up, down):  1.462E-03 1.414E-03

     total cpu time spent up to now is     2251.9 secs

     total energy              =   -2979.42525257 Ry
     estimated scf accuracy    <       0.00133369 Ry

     total magnetization       =     0.00 Bohr mag/cell
     absolute magnetization    =     1.31 Bohr mag/cell

     iteration # 10     ecut=    65.00 Ry     beta= 0.30
     Davidson diagonalization with overlap

---- Real-time Memory Report at c_bands before calling an iterative solver
          2556 MiB given to the printing process from OS
             0 MiB allocation reported by mallinfo(arena+hblkhd)
         13666 MiB available memory on the node where the printing process lives
------------------
     ethr =  3.25E-07,  avg # of iterations =  3.2

     negative rho (up, down):  1.448E-03 1.418E-03

     total cpu time spent up to now is     2501.1 secs

     total energy              =   -2979.42640462 Ry
     estimated scf accuracy    <       0.00071772 Ry

     total magnetization       =     0.00 Bohr mag/cell
     absolute magnetization    =     0.69 Bohr mag/cell

     iteration # 11     ecut=    65.00 Ry     beta= 0.30
     Davidson diagonalization with overlap

---- Real-time Memory Report at c_bands before calling an iterative solver
          2556 MiB given to the printing process from OS
             0 MiB allocation reported by mallinfo(arena+hblkhd)
         13628 MiB available memory on the node where the printing process lives
------------------
     ethr =  1.75E-07,  avg # of iterations =  3.0

     negative rho (up, down):  1.441E-03 1.421E-03

     total cpu time spent up to now is     2718.9 secs

     total energy              =   -2979.42672391 Ry
     estimated scf accuracy    <       0.00024100 Ry

     total magnetization       =     0.00 Bohr mag/cell
     absolute magnetization    =     0.41 Bohr mag/cell

     iteration # 12     ecut=    65.00 Ry     beta= 0.30
     Davidson diagonalization with overlap

---- Real-time Memory Report at c_bands before calling an iterative solver
          2556 MiB given to the printing process from OS
             0 MiB allocation reported by mallinfo(arena+hblkhd)
         13833 MiB available memory on the node where the printing process lives
------------------
     ethr =  5.88E-08,  avg # of iterations =  3.0

     negative rho (up, down):  1.437E-03 1.424E-03

     total cpu time spent up to now is     2941.4 secs

     total energy              =   -2979.42686047 Ry
     estimated scf accuracy    <       0.00005430 Ry

     total magnetization       =     0.00 Bohr mag/cell
     absolute magnetization    =     0.25 Bohr mag/cell

     iteration # 13     ecut=    65.00 Ry     beta= 0.30
     Davidson diagonalization with overlap

---- Real-time Memory Report at c_bands before calling an iterative solver
          2556 MiB given to the printing process from OS
             0 MiB allocation reported by mallinfo(arena+hblkhd)
         13849 MiB available memory on the node where the printing process lives
------------------
     ethr =  1.32E-08,  avg # of iterations =  3.1

     negative rho (up, down):  1.435E-03 1.426E-03

     total cpu time spent up to now is     3189.0 secs

     total energy              =   -2979.42691071 Ry
     estimated scf accuracy    <       0.00002344 Ry

     total magnetization       =     0.00 Bohr mag/cell
     absolute magnetization    =     0.15 Bohr mag/cell

     iteration # 14     ecut=    65.00 Ry     beta= 0.30
     Davidson diagonalization with overlap

---- Real-time Memory Report at c_bands before calling an iterative solver
          2556 MiB given to the printing process from OS
             0 MiB allocation reported by mallinfo(arena+hblkhd)
         13629 MiB available memory on the node where the printing process lives
------------------
     ethr =  5.72E-09,  avg # of iterations =  3.1

     negative rho (up, down):  1.434E-03 1.428E-03

     total cpu time spent up to now is     3432.9 secs

     total energy              =   -2979.42692885 Ry
     estimated scf accuracy    <       0.00001557 Ry

     total magnetization       =     0.00 Bohr mag/cell
     absolute magnetization    =     0.08 Bohr mag/cell

     iteration # 15     ecut=    65.00 Ry     beta= 0.30
     Davidson diagonalization with overlap

---- Real-time Memory Report at c_bands before calling an iterative solver
          2556 MiB given to the printing process from OS
             0 MiB allocation reported by mallinfo(arena+hblkhd)
         13639 MiB available memory on the node where the printing process lives
------------------
     ethr =  3.80E-09,  avg # of iterations =  3.0

     negative rho (up, down):  1.433E-03 1.429E-03

     total cpu time spent up to now is     3665.6 secs

     total energy              =   -2979.42693521 Ry
     estimated scf accuracy    <       0.00000268 Ry

     total magnetization       =     0.00 Bohr mag/cell
     absolute magnetization    =     0.03 Bohr mag/cell

     iteration # 16     ecut=    65.00 Ry     beta= 0.30
     Davidson diagonalization with overlap

---- Real-time Memory Report at c_bands before calling an iterative solver
          2556 MiB given to the printing process from OS
             0 MiB allocation reported by mallinfo(arena+hblkhd)
         13912 MiB available memory on the node where the printing process lives
------------------
     ethr =  6.55E-10,  avg # of iterations =  2.8

     negative rho (up, down):  1.433E-03 1.430E-03

     total cpu time spent up to now is     3891.7 secs

     total energy              =   -2979.42693667 Ry
     estimated scf accuracy    <       0.00000051 Ry

     total magnetization       =     0.00 Bohr mag/cell
     absolute magnetization    =     0.02 Bohr mag/cell

     iteration # 17     ecut=    65.00 Ry     beta= 0.30
     Davidson diagonalization with overlap

---- Real-time Memory Report at c_bands before calling an iterative solver
          2556 MiB given to the printing process from OS
             0 MiB allocation reported by mallinfo(arena+hblkhd)
         13950 MiB available memory on the node where the printing process lives
------------------
     ethr =  1.24E-10,  avg # of iterations =  3.6

     negative rho (up, down):  1.433E-03 1.431E-03

     total cpu time spent up to now is     4174.9 secs

     total energy              =   -2979.42693709 Ry
     estimated scf accuracy    <       0.00000023 Ry

     total magnetization       =     0.00 Bohr mag/cell
     absolute magnetization    =     0.01 Bohr mag/cell

     iteration # 18     ecut=    65.00 Ry     beta= 0.30
     Davidson diagonalization with overlap

---- Real-time Memory Report at c_bands before calling an iterative solver
          2556 MiB given to the printing process from OS
             0 MiB allocation reported by mallinfo(arena+hblkhd)
         13800 MiB available memory on the node where the printing process lives
------------------
     ethr =  5.58E-11,  avg # of iterations =  2.6

     negative rho (up, down):  1.433E-03 1.431E-03

     total cpu time spent up to now is     4378.6 secs

     total energy              =   -2979.42693726 Ry
     estimated scf accuracy    <       0.00000019 Ry

     total magnetization       =     0.00 Bohr mag/cell
     absolute magnetization    =     0.01 Bohr mag/cell

     iteration # 19     ecut=    65.00 Ry     beta= 0.30
     Davidson diagonalization with overlap

---- Real-time Memory Report at c_bands before calling an iterative solver
          2556 MiB given to the printing process from OS
             0 MiB allocation reported by mallinfo(arena+hblkhd)
         13908 MiB available memory on the node where the printing process lives
------------------
     ethr =  4.65E-11,  avg # of iterations =  3.0

     negative rho (up, down):  1.432E-03 1.431E-03

     total cpu time spent up to now is     4609.5 secs

     total energy              =   -2979.42693733 Ry
     estimated scf accuracy    <       0.00000011 Ry

     total magnetization       =     0.00 Bohr mag/cell
     absolute magnetization    =     0.00 Bohr mag/cell

     iteration # 20     ecut=    65.00 Ry     beta= 0.30
     Davidson diagonalization with overlap

---- Real-time Memory Report at c_bands before calling an iterative solver
          2556 MiB given to the printing process from OS
             0 MiB allocation reported by mallinfo(arena+hblkhd)
         13856 MiB available memory on the node where the printing process lives
------------------
     ethr =  2.70E-11,  avg # of iterations =  2.6

     negative rho (up, down):  1.432E-03 1.431E-03

     total cpu time spent up to now is     4812.8 secs

     total energy              =   -2979.42693737 Ry
     estimated scf accuracy    <       0.00000002 Ry

     total magnetization       =    -0.00 Bohr mag/cell
     absolute magnetization    =     0.00 Bohr mag/cell

     iteration # 21     ecut=    65.00 Ry     beta= 0.30
     Davidson diagonalization with overlap

---- Real-time Memory Report at c_bands before calling an iterative solver
          2556 MiB given to the printing process from OS
             0 MiB allocation reported by mallinfo(arena+hblkhd)
         13947 MiB available memory on the node where the printing process lives
------------------
     ethr =  4.17E-12,  avg # of iterations =  2.6

     negative rho (up, down):  1.432E-03 1.432E-03

     Magnetic moment per site  (integrated on atomic sphere of radius R)
     atom   1 (R=0.077)  charge= 10.6272  magn=  0.0000
     atom   2 (R=0.077)  charge= 10.6272  magn=  0.0000
     atom   3 (R=0.077)  charge= 10.6261  magn=  0.0000
     atom   4 (R=0.077)  charge= 10.6261  magn=  0.0000
     atom   5 (R=0.077)  charge= 10.6296  magn= -0.0000
     atom   6 (R=0.077)  charge= 10.6195  magn=  0.0000
     atom   7 (R=0.077)  charge= 10.6296  magn= -0.0000
     atom   8 (R=0.077)  charge= 10.6261  magn=  0.0000
     atom   9 (R=0.077)  charge= 10.6272  magn=  0.0000
     atom  10 (R=0.077)  charge= 10.6195  magn=  0.0000
     atom  11 (R=0.077)  charge= 10.6195  magn=  0.0000
     atom  12 (R=0.077)  charge= 10.6272  magn=  0.0000
     atom  13 (R=0.077)  charge= 10.6276  magn= -0.0000
     atom  14 (R=0.077)  charge= 10.6272  magn=  0.0000
     atom  15 (R=0.077)  charge= 10.6296  magn= -0.0000
     atom  16 (R=0.077)  charge= 10.6272  magn=  0.0000
     atom  17 (R=0.077)  charge=  4.0461  magn= -0.0000
     atom  18 (R=0.077)  charge=  4.0440  magn= -0.0000
     atom  19 (R=0.077)  charge=  4.0448  magn= -0.0000
     atom  20 (R=0.077)  charge=  4.0440  magn= -0.0000
     atom  21 (R=0.077)  charge=  4.0461  magn= -0.0000
     atom  22 (R=0.077)  charge=  4.0461  magn= -0.0000
     atom  23 (R=0.077)  charge=  4.0448  magn= -0.0000
     atom  24 (R=0.077)  charge=  4.0448  magn= -0.0000
     atom  25 (R=0.077)  charge=  4.0461  magn= -0.0000
     atom  26 (R=0.077)  charge=  4.0461  magn= -0.0000
     atom  27 (R=0.077)  charge=  4.0440  magn= -0.0000
     atom  28 (R=0.077)  charge=  4.0461  magn= -0.0000
     atom  29 (R=0.077)  charge=  4.0461  magn= -0.0000
     atom  30 (R=0.077)  charge=  4.0461  magn= -0.0000
     atom  31 (R=0.077)  charge=  4.0461  magn= -0.0000
     atom  32 (R=0.077)  charge=  4.0493  magn= -0.0000
     atom  33 (R=0.077)  charge=  4.0483  magn= -0.0000
     atom  34 (R=0.077)  charge=  4.0451  magn= -0.0000
     atom  35 (R=0.077)  charge=  4.0483  magn= -0.0000
     atom  36 (R=0.077)  charge=  4.0440  magn= -0.0000
     atom  37 (R=0.077)  charge=  4.0440  magn= -0.0000
     atom  38 (R=0.077)  charge=  4.0451  magn= -0.0000
     atom  39 (R=0.077)  charge=  4.0451  magn= -0.0000
     atom  40 (R=0.077)  charge=  4.0440  magn= -0.0000
     atom  41 (R=0.077)  charge=  4.0748  magn=  0.0000
     atom  42 (R=0.077)  charge=  4.0440  magn= -0.0000
     atom  43 (R=0.077)  charge=  4.0483  magn= -0.0000
     atom  44 (R=0.077)  charge=  4.0493  magn= -0.0000
     atom  45 (R=0.077)  charge=  4.0440  magn= -0.0000
     atom  46 (R=0.077)  charge=  4.0440  magn= -0.0000
     atom  47 (R=0.077)  charge=  4.0493  magn= -0.0000

     total cpu time spent up to now is     5033.0 secs

     End of self-consistent calculation

 ------ SPIN UP ------------


          k = 0.0000 0.0000 0.0000 (126355 PWs)   bands (ev):

   -60.3639 -60.3566 -60.3566 -60.3454 -60.3383 -60.3382 -60.3335 -60.3095
   -60.3094 -60.3080 -60.2999 -60.2998 -60.2964 -60.2927 -60.2762 -60.2761
   -34.6619 -34.6619 -34.6177 -34.5968 -34.5899 -34.5899 -34.5650 -34.5650
   -34.5262 -34.4869 -34.4761 -34.4751 -34.4751 -34.4730 -34.4730 -34.4533
   -34.4532 -34.4507 -34.4475 -34.4389 -34.4359 -34.4324 -34.4324 -34.4295
   -34.4294 -34.4054 -34.4053 -34.4007 -34.4007 -34.3975 -34.3891 -34.3867
   -34.3867 -34.3855 -34.3788 -34.3774 -34.3678 -34.3678 -34.3572 -34.3571
   -34.3378 -34.3378 -34.3347 -34.3065 -34.2938 -34.2938 -34.2154 -34.2153
   -13.4644 -12.7117 -12.7116 -12.6816 -12.6750 -12.6750 -12.5554 -12.1686
   -11.8959 -11.8958 -11.8462 -11.8461 -11.8449 -11.8112 -11.7196 -11.7195
   -11.7129 -11.7128 -11.6940 -11.6750 -11.6750 -11.6696 -11.5644 -11.4795
   -11.4794 -11.4563 -11.4563 -11.4396 -11.4395 -11.4352 -11.4260  -5.2003
    -5.0998  -5.0998  -4.9856  -4.5271  -4.5270  -4.5224  -4.4986  -4.4769
    -4.4769  -4.4234  -4.4110  -4.4109  -4.3912  -4.3911  -4.3657  -4.3121
    -4.3121  -4.2840  -4.2668  -4.2369  -4.2368  -4.1439  -3.9413  -3.9413
    -3.4824  -3.4824  -3.4392  -3.3229  -3.2639  -3.2491  -3.2491  -3.1813
    -3.1813  -3.0890  -3.0505  -3.0422  -3.0422  -3.0307  -3.0306  -2.9954
    -2.9729  -2.9728  -2.8505  -2.8505  -2.7254  -2.6723  -2.6723  -2.6456
    -2.6132  -2.6132  -2.5853  -2.4489  -2.4478  -2.4478  -2.3192  -2.3192
    -2.3000  -2.2443  -2.1589  -2.1589  -2.0310  -2.0310  -1.9411  -1.9192
    -1.9192  -1.9060  -1.6069  -1.6068  -1.2943  -1.2928  -1.2928  -1.2921
    -1.2722  -1.2722  -1.1781  -1.1537  -1.1050  -1.1050  -1.0593  -1.0593
    -1.0327  -1.0035  -1.0034  -0.9157  -0.8489  -0.8489  -0.7947  -0.7381
    -0.7380  -0.5414  -0.5414  -0.4583  -0.2471  -0.1724  -0.1724  -0.1383
    -0.1234  -0.1191  -0.1190  -0.0476  -0.0476  -0.0046  -0.0045   0.0265
     0.0359   0.0789   0.0789   0.4297   0.6808   1.7444   1.7445   2.6672
     2.6847   2.6913   2.6913   2.7235   2.7235   2.7388   2.7471   2.7471
     2.7713   2.7713   2.8086   2.8160   2.8160   2.8628   2.9044   2.9240
     2.9240   2.9782   3.1570   3.1570   3.2733   3.2941   3.2941   3.3244
     3.3244   3.3429   3.3535   3.3535   3.3900   3.4206   3.4206   3.4523
     3.4523   3.4664   3.5110   3.5111   3.5967   3.6607

     occupation numbers 
     1.0000   1.0000   1.0000   1.0000   1.0000   1.0000   1.0000   1.0000
     1.0000   1.0000   1.0000   1.0000   1.0000   1.0000   1.0000   1.0000
     1.0000   1.0000   1.0000   1.0000   1.0000   1.0000   1.0000   1.0000
     1.0000   1.0000   1.0000   1.0000   1.0000   1.0000   1.0000   1.0000
     1.0000   1.0000   1.0000   1.0000   1.0000   1.0000   1.0000   1.0000
     1.0000   1.0000   1.0000   1.0000   1.0000   1.0000   1.0000   1.0000
     1.0000   1.0000   1.0000   1.0000   1.0000   1.0000   1.0000   1.0000
     1.0000   1.0000   1.0000   1.0000   1.0000   1.0000   1.0000   1.0000
     1.0000   1.0000   1.0000   1.0000   1.0000   1.0000   1.0000   1.0000
     1.0000   1.0000   1.0000   1.0000   1.0000   1.0000   1.0000   1.0000
     1.0000   1.0000   1.0000   1.0000   1.0000   1.0000   1.0000   1.0000
     1.0000   1.0000   1.0000   1.0000   1.0000   1.0000   1.0000   1.0000
     1.0000   1.0000   1.0000   1.0000   1.0000   1.0000   1.0000   1.0000
     1.0000   1.0000   1.0000   1.0000   1.0000   1.0000   1.0000   1.0000
     1.0000   1.0000   1.0000   1.0000   1.0000   1.0000   1.0000   1.0000
     1.0000   1.0000   1.0000   1.0000   1.0000   1.0000   1.0000   1.0000
     1.0000   1.0000   1.0000   1.0000   1.0000   1.0000   1.0000   1.0000
     1.0000   1.0000   1.0000   1.0000   1.0000   1.0000   1.0000   1.0000
     1.0000   1.0000   1.0000   1.0000   1.0000   1.0000   1.0000   1.0000
     1.0000   1.0000   1.0000   1.0000   1.0000   1.0000   1.0000   1.0000
     1.0000   1.0000   1.0000   1.0000   1.0000   1.0000   1.0000   1.0000
     1.0000   1.0000   1.0000   1.0000   1.0000   1.0000   1.0000   1.0000
     1.0000   1.0000   1.0000   1.0000   1.0000   1.0000   1.0000   1.0000
     1.0000   1.0000   1.0000   1.0000   1.0000   1.0000   1.0000   1.0000
     1.0000   1.0000   1.0000   1.0000   1.0000   1.0000   1.0000   1.0000
     1.0000   1.0000   1.0000   1.0000   0.9992   0.0002   0.0002   0.0000
     0.0000   0.0000   0.0000   0.0000   0.0000   0.0000   0.0000   0.0000
     0.0000   0.0000   0.0000   0.0000   0.0000   0.0000   0.0000   0.0000
     0.0000   0.0000   0.0000   0.0000   0.0000   0.0000   0.0000   0.0000
     0.0000   0.0000   0.0000   0.0000   0.0000   0.0000   0.0000   0.0000
     0.0000   0.0000   0.0000   0.0000   0.0000   0.0000

          k = 0.0000 0.1925 0.0000 (126305 PWs)   bands (ev):

   -60.3636 -60.3570 -60.3566 -60.3452 -60.3385 -60.3382 -60.3333 -60.3094
   -60.3094 -60.3080 -60.3001 -60.3000 -60.2962 -60.2927 -60.2762 -60.2761
   -34.6591 -34.6571 -34.6143 -34.5995 -34.5917 -34.5892 -34.5695 -34.5618
   -34.5329 -34.5089 -34.4921 -34.4841 -34.4754 -34.4684 -34.4568 -34.4547
   -34.4535 -34.4442 -34.4440 -34.4396 -34.4357 -34.4292 -34.4281 -34.4242
   -34.4215 -34.4057 -34.4056 -34.4041 -34.3973 -34.3950 -34.3878 -34.3878
   -34.3852 -34.3790 -34.3782 -34.3749 -34.3691 -34.3678 -34.3571 -34.3570
   -34.3420 -34.3405 -34.3345 -34.3068 -34.2974 -34.2939 -34.2176 -34.2156
   -13.4397 -12.8945 -12.7931 -12.7476 -12.5604 -12.5129 -12.4271 -12.1587
   -11.9511 -11.9185 -11.8863 -11.8638 -11.8453 -11.8118 -11.7851 -11.7617
   -11.7172 -11.7085 -11.6805 -11.6788 -11.6292 -11.5815 -11.5499 -11.5185
   -11.5005 -11.4813 -11.4667 -11.4438 -11.4382 -11.4032 -11.3836  -5.1630
    -5.0664  -5.0658  -4.9562  -4.5832  -4.5526  -4.5519  -4.5355  -4.5190
    -4.4892  -4.4685  -4.4421  -4.4291  -4.4201  -4.4089  -4.3916  -4.3895
    -4.3022  -4.2693  -4.2520  -4.1651  -4.0948  -4.0850  -3.9107  -3.8891
    -3.4691  -3.4688  -3.4207  -3.3347  -3.3066  -3.2766  -3.2746  -3.1936
    -3.1613  -3.1596  -3.1299  -3.1090  -3.0992  -3.0837  -3.0761  -3.0103
    -3.0059  -2.9020  -2.7602  -2.7524  -2.6961  -2.6760  -2.6451  -2.6428
    -2.5915  -2.5872  -2.5609  -2.5561  -2.5431  -2.3949  -2.2972  -2.2935
    -2.1615  -2.1501  -2.1133  -2.1015  -2.0661  -2.0136  -2.0008  -1.9697
    -1.9270  -1.8002  -1.6388  -1.6027  -1.4383  -1.4119  -1.3194  -1.2935
    -1.2465  -1.2391  -1.2218  -1.2072  -1.1507  -1.1438  -1.0685  -1.0618
    -1.0205  -0.9634  -0.9110  -0.9038  -0.8226  -0.7992  -0.7508  -0.6725
    -0.6617  -0.6122  -0.6034  -0.5150  -0.3312  -0.2631  -0.2302  -0.1601
    -0.1304  -0.1287  -0.0516  -0.0392  -0.0307   0.0133   0.0158   0.0326
     0.1126   0.1878   0.1897   0.4345   0.6643   1.7444   1.7495   2.5677
     2.5810   2.6807   2.6889   2.7109   2.7197   2.7224   2.7296   2.7566
     2.7627   2.7857   2.7936   2.8279   2.8324   2.8664   2.8909   2.9616
     2.9729   3.0075   3.1086   3.1148   3.1878   3.2219   3.2419   3.2526
     3.2829   3.2885   3.3217   3.3454   3.3698   3.3798   3.4209   3.4374
     3.5159   3.5330   3.6085   3.6257   3.6440   3.6472

     occupation numbers 
     1.0000   1.0000   1.0000   1.0000   1.0000   1.0000   1.0000   1.0000
     1.0000   1.0000   1.0000   1.0000   1.0000   1.0000   1.0000   1.0000
     1.0000   1.0000   1.0000   1.0000   1.0000   1.0000   1.0000   1.0000
     1.0000   1.0000   1.0000   1.0000   1.0000   1.0000   1.0000   1.0000
     1.0000   1.0000   1.0000   1.0000   1.0000   1.0000   1.0000   1.0000
     1.0000   1.0000   1.0000   1.0000   1.0000   1.0000   1.0000   1.0000
     1.0000   1.0000   1.0000   1.0000   1.0000   1.0000   1.0000   1.0000
     1.0000   1.0000   1.0000   1.0000   1.0000   1.0000   1.0000   1.0000
     1.0000   1.0000   1.0000   1.0000   1.0000   1.0000   1.0000   1.0000
     1.0000   1.0000   1.0000   1.0000   1.0000   1.0000   1.0000   1.0000
     1.0000   1.0000   1.0000   1.0000   1.0000   1.0000   1.0000   1.0000
     1.0000   1.0000   1.0000   1.0000   1.0000   1.0000   1.0000   1.0000
     1.0000   1.0000   1.0000   1.0000   1.0000   1.0000   1.0000   1.0000
     1.0000   1.0000   1.0000   1.0000   1.0000   1.0000   1.0000   1.0000
     1.0000   1.0000   1.0000   1.0000   1.0000   1.0000   1.0000   1.0000
     1.0000   1.0000   1.0000   1.0000   1.0000   1.0000   1.0000   1.0000
     1.0000   1.0000   1.0000   1.0000   1.0000   1.0000   1.0000   1.0000
     1.0000   1.0000   1.0000   1.0000   1.0000   1.0000   1.0000   1.0000
     1.0000   1.0000   1.0000   1.0000   1.0000   1.0000   1.0000   1.0000
     1.0000   1.0000   1.0000   1.0000   1.0000   1.0000   1.0000   1.0000
     1.0000   1.0000   1.0000   1.0000   1.0000   1.0000   1.0000   1.0000
     1.0000   1.0000   1.0000   1.0000   1.0000   1.0000   1.0000   1.0000
     1.0000   1.0000   1.0000   1.0000   1.0000   1.0000   1.0000   1.0000
     1.0000   1.0000   1.0000   1.0000   1.0000   1.0000   1.0000   1.0000
     1.0000   1.0000   1.0000   1.0000   1.0000   1.0000   1.0000   1.0000
     1.0000   1.0000   1.0000   1.0000   0.9994   0.0002   0.0002   0.0000
     0.0000   0.0000   0.0000   0.0000   0.0000   0.0000   0.0000   0.0000
     0.0000   0.0000   0.0000   0.0000   0.0000   0.0000   0.0000   0.0000
     0.0000   0.0000   0.0000   0.0000   0.0000   0.0000   0.0000   0.0000
     0.0000   0.0000   0.0000   0.0000   0.0000   0.0000   0.0000   0.0000
     0.0000   0.0000   0.0000   0.0000   0.0000   0.0000

          k = 0.0000 0.3849 0.0000 (126328 PWs)   bands (ev):

   -60.3631 -60.3577 -60.3566 -60.3449 -60.3389 -60.3382 -60.3330 -60.3093
   -60.3093 -60.3079 -60.3004 -60.3002 -60.2960 -60.2926 -60.2763 -60.2761
   -34.6519 -34.6436 -34.6103 -34.6068 -34.5954 -34.5907 -34.5717 -34.5540
   -34.5493 -34.5341 -34.5106 -34.4858 -34.4761 -34.4734 -34.4596 -34.4569
   -34.4539 -34.4420 -34.4341 -34.4321 -34.4307 -34.4277 -34.4257 -34.4122
   -34.4089 -34.4060 -34.4046 -34.3973 -34.3916 -34.3913 -34.3891 -34.3859
   -34.3831 -34.3792 -34.3774 -34.3768 -34.3669 -34.3577 -34.3570 -34.3537
   -34.3503 -34.3462 -34.3360 -34.3079 -34.3075 -34.2938 -34.2223 -34.2162
   -13.3669 -13.0849 -12.8533 -12.7992 -12.4032 -12.3674 -12.2152 -12.1304
   -12.0453 -12.0396 -11.9911 -11.9358 -11.8945 -11.8250 -11.7528 -11.7370
   -11.7055 -11.6836 -11.6821 -11.6683 -11.6350 -11.5935 -11.5624 -11.5211
   -11.5035 -11.4781 -11.4638 -11.4439 -11.4386 -11.3732 -11.3474  -5.0578
    -4.9725  -4.9693  -4.8714  -4.7235  -4.6799  -4.6619  -4.6157  -4.6067
    -4.5763  -4.5103  -4.4988  -4.4366  -4.4261  -4.4094  -4.3656  -4.3530
    -4.3106  -4.2489  -4.2282  -4.1712  -4.0299  -3.9352  -3.7436  -3.7116
    -3.5321  -3.4305  -3.4282  -3.3774  -3.3297  -3.3104  -3.3077  -3.2879
    -3.2613  -3.2440  -3.2394  -3.2017  -3.1563  -3.1517  -3.1274  -3.0080
    -2.9420  -2.7995  -2.6977  -2.6816  -2.6513  -2.6387  -2.6282  -2.6281
    -2.5987  -2.5574  -2.5422  -2.4844  -2.4393  -2.4094  -2.3833  -2.3249
    -2.3098  -2.2366  -2.1083  -2.0845  -2.0160  -1.9386  -1.8524  -1.7603
    -1.7468  -1.6830  -1.6827  -1.5807  -1.5758  -1.4691  -1.3830  -1.3670
    -1.3186  -1.3094  -1.2277  -1.2218  -1.1716  -1.1629  -1.1362  -1.1239
    -1.0153  -1.0065  -0.9510  -0.9101  -0.8164  -0.7878  -0.7479  -0.6809
    -0.6164  -0.6053  -0.5018  -0.4637  -0.3853  -0.3127  -0.2724  -0.2366
    -0.2021  -0.1935  -0.0133   0.0064   0.0173   0.0410   0.0509   0.0619
     0.2914   0.3233   0.3283   0.4502   0.6151   1.7443   1.7627   2.4242
     2.4533   2.6053   2.6333   2.6576   2.6888   2.6958   2.7202   2.7379
     2.7569   2.7731   2.8029   2.8468   2.8736   2.9007   2.9316   2.9928
     3.0085   3.0451   3.0614   3.0962   3.1031   3.1213   3.1496   3.1743
     3.2014   3.2557   3.2707   3.3016   3.3424   3.3524   3.3712   3.4669
     3.5106   3.5349   3.5794   3.6577   3.7378   3.7438

     occupation numbers 
     1.0000   1.0000   1.0000   1.0000   1.0000   1.0000   1.0000   1.0000
     1.0000   1.0000   1.0000   1.0000   1.0000   1.0000   1.0000   1.0000
     1.0000   1.0000   1.0000   1.0000   1.0000   1.0000   1.0000   1.0000
     1.0000   1.0000   1.0000   1.0000   1.0000   1.0000   1.0000   1.0000
     1.0000   1.0000   1.0000   1.0000   1.0000   1.0000   1.0000   1.0000
     1.0000   1.0000   1.0000   1.0000   1.0000   1.0000   1.0000   1.0000
     1.0000   1.0000   1.0000   1.0000   1.0000   1.0000   1.0000   1.0000
     1.0000   1.0000   1.0000   1.0000   1.0000   1.0000   1.0000   1.0000
     1.0000   1.0000   1.0000   1.0000   1.0000   1.0000   1.0000   1.0000
     1.0000   1.0000   1.0000   1.0000   1.0000   1.0000   1.0000   1.0000
     1.0000   1.0000   1.0000   1.0000   1.0000   1.0000   1.0000   1.0000
     1.0000   1.0000   1.0000   1.0000   1.0000   1.0000   1.0000   1.0000
     1.0000   1.0000   1.0000   1.0000   1.0000   1.0000   1.0000   1.0000
     1.0000   1.0000   1.0000   1.0000   1.0000   1.0000   1.0000   1.0000
     1.0000   1.0000   1.0000   1.0000   1.0000   1.0000   1.0000   1.0000
     1.0000   1.0000   1.0000   1.0000   1.0000   1.0000   1.0000   1.0000
     1.0000   1.0000   1.0000   1.0000   1.0000   1.0000   1.0000   1.0000
     1.0000   1.0000   1.0000   1.0000   1.0000   1.0000   1.0000   1.0000
     1.0000   1.0000   1.0000   1.0000   1.0000   1.0000   1.0000   1.0000
     1.0000   1.0000   1.0000   1.0000   1.0000   1.0000   1.0000   1.0000
     1.0000   1.0000   1.0000   1.0000   1.0000   1.0000   1.0000   1.0000
     1.0000   1.0000   1.0000   1.0000   1.0000   1.0000   1.0000   1.0000
     1.0000   1.0000   1.0000   1.0000   1.0000   1.0000   1.0000   1.0000
     1.0000   1.0000   1.0000   1.0000   1.0000   1.0000   1.0000   1.0000
     1.0000   1.0000   1.0000   1.0000   1.0000   1.0000   1.0000   1.0000
     1.0000   1.0000   1.0000   1.0000   0.9997   0.0002   0.0002   0.0000
     0.0000   0.0000   0.0000   0.0000   0.0000   0.0000   0.0000   0.0000
     0.0000   0.0000   0.0000   0.0000   0.0000   0.0000   0.0000   0.0000
     0.0000   0.0000   0.0000   0.0000   0.0000   0.0000   0.0000   0.0000
     0.0000   0.0000   0.0000   0.0000   0.0000   0.0000   0.0000   0.0000
     0.0000   0.0000   0.0000   0.0000   0.0000   0.0000

          k = 0.0000-0.5774 0.0000 (126288 PWs)   bands (ev):

   -60.3628 -60.3581 -60.3567 -60.3448 -60.3391 -60.3381 -60.3328 -60.3093
   -60.3092 -60.3078 -60.3006 -60.3004 -60.2959 -60.2925 -60.2763 -60.2761
   -34.6465 -34.6297 -34.6177 -34.6144 -34.5940 -34.5898 -34.5696 -34.5586
   -34.5480 -34.5461 -34.5204 -34.4821 -34.4802 -34.4722 -34.4665 -34.4605
   -34.4541 -34.4428 -34.4333 -34.4275 -34.4250 -34.4227 -34.4217 -34.4076
   -34.4060 -34.4055 -34.3987 -34.3972 -34.3960 -34.3912 -34.3900 -34.3898
   -34.3817 -34.3789 -34.3694 -34.3681 -34.3677 -34.3588 -34.3574 -34.3558
   -34.3558 -34.3388 -34.3371 -34.3168 -34.3088 -34.2936 -34.2248 -34.2165
   -13.2684 -13.2237 -12.8737 -12.8175 -12.2443 -12.2299 -12.2253 -12.1624
   -12.0968 -12.0760 -12.0193 -11.9523 -11.9441 -11.8991 -11.7092 -11.7052
   -11.6972 -11.6783 -11.6675 -11.6667 -11.6563 -11.6026 -11.5964 -11.5521
   -11.4823 -11.4609 -11.4591 -11.4408 -11.4386 -11.3622 -11.3344  -4.9257
    -4.8767  -4.8672  -4.8472  -4.7926  -4.7898  -4.7603  -4.7128  -4.6583
    -4.6567  -4.4950  -4.4932  -4.4490  -4.4421  -4.4153  -4.3399  -4.3309
    -4.3017  -4.2459  -4.2296  -4.1474  -4.0338  -3.8103  -3.7353  -3.5690
    -3.5058  -3.4376  -3.4352  -3.3817  -3.3724  -3.3640  -3.3343  -3.3314
    -3.3054  -3.2947  -3.2813  -3.2406  -3.1973  -3.1749  -3.1329  -2.9909
    -2.9646  -2.6691  -2.6615  -2.6345  -2.6338  -2.5992  -2.5902  -2.5703
    -2.5677  -2.5546  -2.5474  -2.5275  -2.5191  -2.4332  -2.4260  -2.3921
    -2.3580  -2.2292  -2.1065  -2.0374  -2.0249  -1.9261  -1.8576  -1.8301
    -1.6922  -1.5106  -1.4983  -1.4374  -1.4071  -1.4007  -1.3987  -1.3748
    -1.3591  -1.3516  -1.3272  -1.3158  -1.2899  -1.2159  -1.1914  -1.1709
    -1.1642  -1.1621  -0.9605  -0.9338  -0.8059  -0.7232  -0.7029  -0.6549
    -0.6354  -0.5959  -0.4408  -0.4122  -0.3565  -0.3197  -0.2955  -0.2728
    -0.2537  -0.2206  -0.0010   0.0316   0.0335   0.0503   0.0682   0.0752
     0.3683   0.3820   0.3990   0.4714   0.5652   1.7437   1.7713   2.3598
     2.3981   2.5669   2.5970   2.6117   2.6593   2.6838   2.7190   2.7388
     2.7585   2.7692   2.8048   2.8397   2.8870   2.9931   3.0032   3.0195
     3.0234   3.0387   3.0476   3.0553   3.0608   3.0761   3.0772   3.1333
     3.1450   3.2071   3.2983   3.3008   3.3263   3.3264   3.3454   3.4975
     3.5155   3.5319   3.6247   3.6631   3.6814   3.7510

     occupation numbers 
     1.0000   1.0000   1.0000   1.0000   1.0000   1.0000   1.0000   1.0000
     1.0000   1.0000   1.0000   1.0000   1.0000   1.0000   1.0000   1.0000
     1.0000   1.0000   1.0000   1.0000   1.0000   1.0000   1.0000   1.0000
     1.0000   1.0000   1.0000   1.0000   1.0000   1.0000   1.0000   1.0000
     1.0000   1.0000   1.0000   1.0000   1.0000   1.0000   1.0000   1.0000
     1.0000   1.0000   1.0000   1.0000   1.0000   1.0000   1.0000   1.0000
     1.0000   1.0000   1.0000   1.0000   1.0000   1.0000   1.0000   1.0000
     1.0000   1.0000   1.0000   1.0000   1.0000   1.0000   1.0000   1.0000
     1.0000   1.0000   1.0000   1.0000   1.0000   1.0000   1.0000   1.0000
     1.0000   1.0000   1.0000   1.0000   1.0000   1.0000   1.0000   1.0000
     1.0000   1.0000   1.0000   1.0000   1.0000   1.0000   1.0000   1.0000
     1.0000   1.0000   1.0000   1.0000   1.0000   1.0000   1.0000   1.0000
     1.0000   1.0000   1.0000   1.0000   1.0000   1.0000   1.0000   1.0000
     1.0000   1.0000   1.0000   1.0000   1.0000   1.0000   1.0000   1.0000
     1.0000   1.0000   1.0000   1.0000   1.0000   1.0000   1.0000   1.0000
     1.0000   1.0000   1.0000   1.0000   1.0000   1.0000   1.0000   1.0000
     1.0000   1.0000   1.0000   1.0000   1.0000   1.0000   1.0000   1.0000
     1.0000   1.0000   1.0000   1.0000   1.0000   1.0000   1.0000   1.0000
     1.0000   1.0000   1.0000   1.0000   1.0000   1.0000   1.0000   1.0000
     1.0000   1.0000   1.0000   1.0000   1.0000   1.0000   1.0000   1.0000
     1.0000   1.0000   1.0000   1.0000   1.0000   1.0000   1.0000   1.0000
     1.0000   1.0000   1.0000   1.0000   1.0000   1.0000   1.0000   1.0000
     1.0000   1.0000   1.0000   1.0000   1.0000   1.0000   1.0000   1.0000
     1.0000   1.0000   1.0000   1.0000   1.0000   1.0000   1.0000   1.0000
     1.0000   1.0000   1.0000   1.0000   1.0000   1.0000   1.0000   1.0000
     1.0000   1.0000   1.0000   1.0000   0.9999   0.0002   0.0001   0.0000
     0.0000   0.0000   0.0000   0.0000   0.0000   0.0000   0.0000   0.0000
     0.0000   0.0000   0.0000   0.0000   0.0000   0.0000   0.0000   0.0000
     0.0000   0.0000   0.0000   0.0000   0.0000   0.0000   0.0000   0.0000
     0.0000   0.0000   0.0000   0.0000   0.0000   0.0000   0.0000   0.0000
     0.0000   0.0000   0.0000   0.0000   0.0000   0.0000

          k = 0.1667 0.2887 0.0000 (126343 PWs)   bands (ev):

   -60.3633 -60.3575 -60.3567 -60.3450 -60.3388 -60.3382 -60.3331 -60.3094
   -60.3093 -60.3079 -60.3003 -60.3002 -60.2960 -60.2926 -60.2763 -60.2761
   -34.6540 -34.6480 -34.6086 -34.6045 -34.5995 -34.5830 -34.5763 -34.5594
   -34.5411 -34.5291 -34.5019 -34.4946 -34.4740 -34.4666 -34.4574 -34.4552
   -34.4542 -34.4426 -34.4389 -34.4347 -34.4310 -34.4282 -34.4261 -34.4249
   -34.4069 -34.4052 -34.4026 -34.3971 -34.3945 -34.3904 -34.3883 -34.3871
   -34.3846 -34.3796 -34.3786 -34.3742 -34.3677 -34.3602 -34.3569 -34.3567
   -34.3475 -34.3448 -34.3359 -34.3083 -34.3032 -34.2944 -34.2209 -34.2162
   -13.3909 -12.9930 -12.9576 -12.6420 -12.5796 -12.3175 -12.3021 -12.1399
   -12.0415 -11.9865 -11.9690 -11.8653 -11.8517 -11.8305 -11.7957 -11.7649
   -11.7481 -11.6990 -11.6915 -11.6284 -11.6010 -11.5893 -11.5393 -11.5297
   -11.5033 -11.4938 -11.4897 -11.4459 -11.4055 -11.3975 -11.3512  -5.0915
    -5.0024  -5.0004  -4.8990  -4.6681  -4.6409  -4.6145  -4.5798  -4.5485
    -4.5420  -4.5226  -4.5090  -4.4899  -4.4505  -4.4427  -4.3857  -4.3615
    -4.2954  -4.2369  -4.2007  -4.0984  -4.0514  -3.9807  -3.8804  -3.7093
    -3.4498  -3.4470  -3.4387  -3.4151  -3.3569  -3.3253  -3.2897  -3.2687
    -3.2318  -3.2257  -3.1863  -3.1745  -3.1350  -3.1168  -3.0564  -2.9777
    -2.9387  -2.8902  -2.8221  -2.7792  -2.6952  -2.6670  -2.6227  -2.6001
    -2.5688  -2.5424  -2.5175  -2.4793  -2.3947  -2.3608  -2.3026  -2.2799
    -2.2592  -2.2361  -2.2139  -2.1459  -2.0573  -1.9555  -1.8715  -1.7763
    -1.7432  -1.7419  -1.6491  -1.6232  -1.5962  -1.4739  -1.3822  -1.3390
    -1.3110  -1.2592  -1.2379  -1.2266  -1.1970  -1.1322  -1.1010  -1.0551
    -0.9990  -0.9636  -0.9498  -0.9187  -0.8286  -0.7973  -0.7372  -0.6812
    -0.6217  -0.5907  -0.5448  -0.5251  -0.3541  -0.3407  -0.2300  -0.2000
    -0.1391  -0.1343  -0.1158  -0.0992  -0.0515   0.0624   0.1186   0.1522
     0.2115   0.2222   0.3425   0.4436   0.6312   1.7400   1.7636   2.4027
     2.5920   2.6048   2.6273   2.6681   2.6822   2.7091   2.7224   2.7430
     2.7667   2.7759   2.8098   2.8336   2.8574   2.8821   2.9234   2.9803
     3.0060   3.0435   3.0680   3.0994   3.1361   3.1521   3.1697   3.1807
     3.2159   3.2360   3.2931   3.3024   3.3035   3.3645   3.3848   3.4654
     3.5314   3.5506   3.6330   3.6853   3.7074   3.7217

     occupation numbers 
     1.0000   1.0000   1.0000   1.0000   1.0000   1.0000   1.0000   1.0000
     1.0000   1.0000   1.0000   1.0000   1.0000   1.0000   1.0000   1.0000
     1.0000   1.0000   1.0000   1.0000   1.0000   1.0000   1.0000   1.0000
     1.0000   1.0000   1.0000   1.0000   1.0000   1.0000   1.0000   1.0000
     1.0000   1.0000   1.0000   1.0000   1.0000   1.0000   1.0000   1.0000
     1.0000   1.0000   1.0000   1.0000   1.0000   1.0000   1.0000   1.0000
     1.0000   1.0000   1.0000   1.0000   1.0000   1.0000   1.0000   1.0000
     1.0000   1.0000   1.0000   1.0000   1.0000   1.0000   1.0000   1.0000
     1.0000   1.0000   1.0000   1.0000   1.0000   1.0000   1.0000   1.0000
     1.0000   1.0000   1.0000   1.0000   1.0000   1.0000   1.0000   1.0000
     1.0000   1.0000   1.0000   1.0000   1.0000   1.0000   1.0000   1.0000
     1.0000   1.0000   1.0000   1.0000   1.0000   1.0000   1.0000   1.0000
     1.0000   1.0000   1.0000   1.0000   1.0000   1.0000   1.0000   1.0000
     1.0000   1.0000   1.0000   1.0000   1.0000   1.0000   1.0000   1.0000
     1.0000   1.0000   1.0000   1.0000   1.0000   1.0000   1.0000   1.0000
     1.0000   1.0000   1.0000   1.0000   1.0000   1.0000   1.0000   1.0000
     1.0000   1.0000   1.0000   1.0000   1.0000   1.0000   1.0000   1.0000
     1.0000   1.0000   1.0000   1.0000   1.0000   1.0000   1.0000   1.0000
     1.0000   1.0000   1.0000   1.0000   1.0000   1.0000   1.0000   1.0000
     1.0000   1.0000   1.0000   1.0000   1.0000   1.0000   1.0000   1.0000
     1.0000   1.0000   1.0000   1.0000   1.0000   1.0000   1.0000   1.0000
     1.0000   1.0000   1.0000   1.0000   1.0000   1.0000   1.0000   1.0000
     1.0000   1.0000   1.0000   1.0000   1.0000   1.0000   1.0000   1.0000
     1.0000   1.0000   1.0000   1.0000   1.0000   1.0000   1.0000   1.0000
     1.0000   1.0000   1.0000   1.0000   1.0000   1.0000   1.0000   1.0000
     1.0000   1.0000   1.0000   1.0000   0.9996   0.0002   0.0002   0.0000
     0.0000   0.0000   0.0000   0.0000   0.0000   0.0000   0.0000   0.0000
     0.0000   0.0000   0.0000   0.0000   0.0000   0.0000   0.0000   0.0000
     0.0000   0.0000   0.0000   0.0000   0.0000   0.0000   0.0000   0.0000
     0.0000   0.0000   0.0000   0.0000   0.0000   0.0000   0.0000   0.0000
     0.0000   0.0000   0.0000   0.0000   0.0000   0.0000

          k = 0.1667 0.4811 0.0000 (126406 PWs)   bands (ev):

   -60.3628 -60.3581 -60.3567 -60.3448 -60.3391 -60.3382 -60.3328 -60.3093
   -60.3092 -60.3078 -60.3006 -60.3004 -60.2959 -60.2925 -60.2763 -60.2761
   -34.6463 -34.6335 -34.6154 -34.6061 -34.6008 -34.5873 -34.5733 -34.5618
   -34.5562 -34.5316 -34.5174 -34.4978 -34.4731 -34.4721 -34.4599 -34.4555
   -34.4492 -34.4436 -34.4416 -34.4334 -34.4277 -34.4246 -34.4211 -34.4086
   -34.4070 -34.4049 -34.4013 -34.3977 -34.3918 -34.3903 -34.3876 -34.3838
   -34.3801 -34.3787 -34.3731 -34.3714 -34.3644 -34.3579 -34.3573 -34.3559
   -34.3542 -34.3429 -34.3375 -34.3165 -34.3075 -34.2946 -34.2242 -34.2169
   -13.2969 -13.1523 -13.0138 -12.6503 -12.4325 -12.2438 -12.1631 -12.1150
   -12.0842 -12.0507 -12.0063 -11.9768 -11.8926 -11.8488 -11.8123 -11.7711
   -11.7508 -11.6865 -11.6425 -11.6232 -11.6099 -11.5820 -11.5704 -11.5462
   -11.5081 -11.5002 -11.4752 -11.4217 -11.4084 -11.3769 -11.3298  -4.9614
    -4.8896  -4.8819  -4.7963  -4.7827  -4.7570  -4.7149  -4.6829  -4.6435
    -4.6252  -4.6031  -4.5563  -4.5039  -4.4868  -4.4147  -4.3653  -4.3483
    -4.2745  -4.2526  -4.1051  -4.0553  -3.9669  -3.8756  -3.7806  -3.6593
    -3.5754  -3.4184  -3.4074  -3.3834  -3.3528  -3.3412  -3.3246  -3.3088
    -3.2957  -3.2796  -3.2673  -3.2333  -3.2277  -3.1434  -3.1038  -3.0062
    -2.9171  -2.8223  -2.7438  -2.6969  -2.6619  -2.6285  -2.5992  -2.5755
    -2.5442  -2.5140  -2.4999  -2.4796  -2.4515  -2.4257  -2.3948  -2.3777
    -2.3005  -2.2577  -2.1573  -2.0330  -2.0009  -1.8635  -1.8147  -1.7720
    -1.6966  -1.6737  -1.6048  -1.4992  -1.4796  -1.4493  -1.3975  -1.3612
    -1.3543  -1.3374  -1.3042  -1.2626  -1.2209  -1.2086  -1.1624  -1.1223
    -1.0866  -1.0310  -0.9947  -0.9690  -0.8909  -0.7988  -0.7617  -0.6899
    -0.5704  -0.5502  -0.4532  -0.4342  -0.3300  -0.3039  -0.2623  -0.2439
    -0.2217  -0.1890  -0.1115  -0.0941  -0.0561   0.1062   0.1451   0.2155
     0.2867   0.3575   0.4424   0.4651   0.5728   1.7336   1.7825   2.2778
     2.5256   2.5337   2.5995   2.6272   2.6649   2.6831   2.7088   2.7211
     2.7613   2.7897   2.7983   2.8327   2.8891   2.9550   2.9835   2.9982
     3.0228   3.0415   3.0589   3.0725   3.0851   3.1047   3.1120   3.1228
     3.1577   3.1683   3.1939   3.2386   3.3049   3.3448   3.4130   3.4476
     3.5289   3.5865   3.6741   3.7129   3.7572   3.7675

     occupation numbers 
     1.0000   1.0000   1.0000   1.0000   1.0000   1.0000   1.0000   1.0000
     1.0000   1.0000   1.0000   1.0000   1.0000   1.0000   1.0000   1.0000
     1.0000   1.0000   1.0000   1.0000   1.0000   1.0000   1.0000   1.0000
     1.0000   1.0000   1.0000   1.0000   1.0000   1.0000   1.0000   1.0000
     1.0000   1.0000   1.0000   1.0000   1.0000   1.0000   1.0000   1.0000
     1.0000   1.0000   1.0000   1.0000   1.0000   1.0000   1.0000   1.0000
     1.0000   1.0000   1.0000   1.0000   1.0000   1.0000   1.0000   1.0000
     1.0000   1.0000   1.0000   1.0000   1.0000   1.0000   1.0000   1.0000
     1.0000   1.0000   1.0000   1.0000   1.0000   1.0000   1.0000   1.0000
     1.0000   1.0000   1.0000   1.0000   1.0000   1.0000   1.0000   1.0000
     1.0000   1.0000   1.0000   1.0000   1.0000   1.0000   1.0000   1.0000
     1.0000   1.0000   1.0000   1.0000   1.0000   1.0000   1.0000   1.0000
     1.0000   1.0000   1.0000   1.0000   1.0000   1.0000   1.0000   1.0000
     1.0000   1.0000   1.0000   1.0000   1.0000   1.0000   1.0000   1.0000
     1.0000   1.0000   1.0000   1.0000   1.0000   1.0000   1.0000   1.0000
     1.0000   1.0000   1.0000   1.0000   1.0000   1.0000   1.0000   1.0000
     1.0000   1.0000   1.0000   1.0000   1.0000   1.0000   1.0000   1.0000
     1.0000   1.0000   1.0000   1.0000   1.0000   1.0000   1.0000   1.0000
     1.0000   1.0000   1.0000   1.0000   1.0000   1.0000   1.0000   1.0000
     1.0000   1.0000   1.0000   1.0000   1.0000   1.0000   1.0000   1.0000
     1.0000   1.0000   1.0000   1.0000   1.0000   1.0000   1.0000   1.0000
     1.0000   1.0000   1.0000   1.0000   1.0000   1.0000   1.0000   1.0000
     1.0000   1.0000   1.0000   1.0000   1.0000   1.0000   1.0000   1.0000
     1.0000   1.0000   1.0000   1.0000   1.0000   1.0000   1.0000   1.0000
     1.0000   1.0000   1.0000   1.0000   1.0000   1.0000   1.0000   1.0000
     1.0000   1.0000   1.0000   1.0000   0.9998   0.0002   0.0001   0.0000
     0.0000   0.0000   0.0000   0.0000   0.0000   0.0000   0.0000   0.0000
     0.0000   0.0000   0.0000   0.0000   0.0000   0.0000   0.0000   0.0000
     0.0000   0.0000   0.0000   0.0000   0.0000   0.0000   0.0000   0.0000
     0.0000   0.0000   0.0000   0.0000   0.0000   0.0000   0.0000   0.0000
     0.0000   0.0000   0.0000   0.0000   0.0000   0.0000

          k = 0.3333 0.5774 0.0000 (126429 PWs)   bands (ev):

   -60.3626 -60.3582 -60.3568 -60.3447 -60.3391 -60.3382 -60.3328 -60.3093
   -60.3091 -60.3078 -60.3006 -60.3005 -60.2958 -60.2925 -60.2763 -60.2761
   -34.6417 -34.6297 -34.6167 -34.6041 -34.5973 -34.5933 -34.5828 -34.5624
   -34.5567 -34.5259 -34.5228 -34.5035 -34.4714 -34.4687 -34.4598 -34.4578
   -34.4572 -34.4415 -34.4332 -34.4279 -34.4264 -34.4240 -34.4239 -34.4221
   -34.4078 -34.4043 -34.3978 -34.3922 -34.3916 -34.3880 -34.3876 -34.3830
   -34.3791 -34.3766 -34.3722 -34.3643 -34.3621 -34.3597 -34.3585 -34.3568
   -34.3558 -34.3441 -34.3339 -34.3242 -34.3076 -34.2954 -34.2248 -34.2176
   -13.2030 -13.1906 -13.1310 -12.4781 -12.4736 -12.3936 -12.0813 -12.0592
   -12.0497 -11.9911 -11.9893 -11.9639 -11.9536 -11.9528 -11.8370 -11.7850
   -11.7750 -11.7220 -11.6032 -11.5944 -11.5659 -11.5650 -11.5620 -11.5555
   -11.5514 -11.5408 -11.4706 -11.3982 -11.3948 -11.3900 -11.3215  -4.8531
    -4.7987  -4.7955  -4.7842  -4.7783  -4.7639  -4.7580  -4.7564  -4.6893
    -4.6847  -4.6801  -4.6094  -4.5985  -4.4885  -4.4391  -4.3698  -4.3148
    -4.2634  -4.2607  -3.9529  -3.9326  -3.8681  -3.8538  -3.8526  -3.7561
    -3.6972  -3.4410  -3.3691  -3.3686  -3.3641  -3.3537  -3.3248  -3.3046
    -3.2961  -3.2852  -3.2813  -3.2439  -3.1809  -3.1792  -3.0451  -3.0216
    -2.9572  -2.8216  -2.7397  -2.6334  -2.6246  -2.6028  -2.5927  -2.5803
    -2.5714  -2.5577  -2.5317  -2.5191  -2.5180  -2.5110  -2.4521  -2.3822
    -2.1655  -2.1647  -2.0511  -2.0169  -2.0148  -1.8014  -1.7750  -1.7491
    -1.7360  -1.6814  -1.5976  -1.5385  -1.5056  -1.4918  -1.4783  -1.4204
    -1.3397  -1.3045  -1.2653  -1.2202  -1.1833  -1.0804  -1.0790  -1.0709
    -1.0618  -1.0565  -1.0514  -1.0508  -1.0403  -1.0234  -0.7732  -0.6600
    -0.5529  -0.4860  -0.4477  -0.4049  -0.2830  -0.2466  -0.2438  -0.2208
    -0.2160  -0.2086  -0.1793  -0.1617  -0.1223   0.1603   0.1708   0.2522
     0.3326   0.3812   0.4292   0.5135   0.5427   1.7253   1.7964   2.2113
     2.4941   2.5766   2.5835   2.6364   2.6524   2.6542   2.6976   2.7256
     2.7429   2.7928   2.7961   2.8200   2.9565   2.9647   2.9866   2.9991
     3.0372   3.0464   3.0477   3.0624   3.0660   3.0678   3.0786   3.1123
     3.1318   3.1463   3.1872   3.2128   3.2527   3.2935   3.3723   3.5490
     3.5538   3.6584   3.6812   3.6840   3.7740   3.8115

     occupation numbers 
     1.0000   1.0000   1.0000   1.0000   1.0000   1.0000   1.0000   1.0000
     1.0000   1.0000   1.0000   1.0000   1.0000   1.0000   1.0000   1.0000
     1.0000   1.0000   1.0000   1.0000   1.0000   1.0000   1.0000   1.0000
     1.0000   1.0000   1.0000   1.0000   1.0000   1.0000   1.0000   1.0000
     1.0000   1.0000   1.0000   1.0000   1.0000   1.0000   1.0000   1.0000
     1.0000   1.0000   1.0000   1.0000   1.0000   1.0000   1.0000   1.0000
     1.0000   1.0000   1.0000   1.0000   1.0000   1.0000   1.0000   1.0000
     1.0000   1.0000   1.0000   1.0000   1.0000   1.0000   1.0000   1.0000
     1.0000   1.0000   1.0000   1.0000   1.0000   1.0000   1.0000   1.0000
     1.0000   1.0000   1.0000   1.0000   1.0000   1.0000   1.0000   1.0000
     1.0000   1.0000   1.0000   1.0000   1.0000   1.0000   1.0000   1.0000
     1.0000   1.0000   1.0000   1.0000   1.0000   1.0000   1.0000   1.0000
     1.0000   1.0000   1.0000   1.0000   1.0000   1.0000   1.0000   1.0000
     1.0000   1.0000   1.0000   1.0000   1.0000   1.0000   1.0000   1.0000
     1.0000   1.0000   1.0000   1.0000   1.0000   1.0000   1.0000   1.0000
     1.0000   1.0000   1.0000   1.0000   1.0000   1.0000   1.0000   1.0000
     1.0000   1.0000   1.0000   1.0000   1.0000   1.0000   1.0000   1.0000
     1.0000   1.0000   1.0000   1.0000   1.0000   1.0000   1.0000   1.0000
     1.0000   1.0000   1.0000   1.0000   1.0000   1.0000   1.0000   1.0000
     1.0000   1.0000   1.0000   1.0000   1.0000   1.0000   1.0000   1.0000
     1.0000   1.0000   1.0000   1.0000   1.0000   1.0000   1.0000   1.0000
     1.0000   1.0000   1.0000   1.0000   1.0000   1.0000   1.0000   1.0000
     1.0000   1.0000   1.0000   1.0000   1.0000   1.0000   1.0000   1.0000
     1.0000   1.0000   1.0000   1.0000   1.0000   1.0000   1.0000   1.0000
     1.0000   1.0000   1.0000   1.0000   1.0000   1.0000   1.0000   1.0000
     1.0000   1.0000   1.0000   0.9999   0.9999   0.0003   0.0001   0.0000
     0.0000   0.0000   0.0000   0.0000   0.0000   0.0000   0.0000   0.0000
     0.0000   0.0000   0.0000   0.0000   0.0000   0.0000   0.0000   0.0000
     0.0000   0.0000   0.0000   0.0000   0.0000   0.0000   0.0000   0.0000
     0.0000   0.0000   0.0000   0.0000   0.0000   0.0000   0.0000   0.0000
     0.0000   0.0000   0.0000   0.0000   0.0000   0.0000

 ------ SPIN DOWN ----------


          k = 0.0000 0.0000 0.0000 (126355 PWs)   bands (ev):

   -60.3639 -60.3567 -60.3567 -60.3454 -60.3382 -60.3382 -60.3335 -60.3095
   -60.3094 -60.3080 -60.2999 -60.2998 -60.2964 -60.2928 -60.2763 -60.2761
   -34.6620 -34.6620 -34.6177 -34.5969 -34.5900 -34.5900 -34.5650 -34.5650
   -34.5262 -34.4870 -34.4761 -34.4751 -34.4751 -34.4731 -34.4731 -34.4533
   -34.4533 -34.4507 -34.4475 -34.4389 -34.4359 -34.4324 -34.4324 -34.4294
   -34.4294 -34.4053 -34.4053 -34.4007 -34.4007 -34.3975 -34.3891 -34.3867
   -34.3867 -34.3855 -34.3788 -34.3774 -34.3678 -34.3678 -34.3572 -34.3570
   -34.3379 -34.3379 -34.3348 -34.3065 -34.2938 -34.2938 -34.2155 -34.2153
   -13.4644 -12.7117 -12.7116 -12.6816 -12.6750 -12.6750 -12.5554 -12.1686
   -11.8959 -11.8959 -11.8462 -11.8462 -11.8449 -11.8112 -11.7196 -11.7195
   -11.7129 -11.7129 -11.6940 -11.6751 -11.6750 -11.6697 -11.5644 -11.4795
   -11.4795 -11.4564 -11.4563 -11.4396 -11.4396 -11.4352 -11.4261  -5.2003
    -5.0998  -5.0998  -4.9856  -4.5270  -4.5270  -4.5224  -4.4986  -4.4769
    -4.4768  -4.4233  -4.4110  -4.4109  -4.3911  -4.3911  -4.3657  -4.3121
    -4.3121  -4.2840  -4.2668  -4.2369  -4.2368  -4.1439  -3.9413  -3.9413
    -3.4824  -3.4824  -3.4392  -3.3228  -3.2639  -3.2491  -3.2491  -3.1813
    -3.1813  -3.0890  -3.0505  -3.0421  -3.0421  -3.0306  -3.0306  -2.9954
    -2.9728  -2.9728  -2.8505  -2.8504  -2.7254  -2.6723  -2.6722  -2.6456
    -2.6132  -2.6132  -2.5853  -2.4489  -2.4478  -2.4478  -2.3192  -2.3192
    -2.3000  -2.2443  -2.1589  -2.1589  -2.0310  -2.0310  -1.9411  -1.9192
    -1.9192  -1.9060  -1.6068  -1.6068  -1.2942  -1.2929  -1.2928  -1.2921
    -1.2722  -1.2722  -1.1781  -1.1536  -1.1050  -1.1050  -1.0593  -1.0593
    -1.0327  -1.0034  -1.0034  -0.9157  -0.8489  -0.8489  -0.7947  -0.7380
    -0.7380  -0.5414  -0.5414  -0.4584  -0.2471  -0.1724  -0.1724  -0.1383
    -0.1233  -0.1190  -0.1190  -0.0476  -0.0476  -0.0046  -0.0045   0.0265
     0.0359   0.0789   0.0789   0.4296   0.6808   1.7444   1.7444   2.6672
     2.6847   2.6913   2.6913   2.7234   2.7234   2.7388   2.7471   2.7471
     2.7713   2.7713   2.8086   2.8160   2.8160   2.8628   2.9044   2.9240
     2.9240   2.9782   3.1570   3.1570   3.2732   3.2941   3.2941   3.3244
     3.3244   3.3429   3.3534   3.3535   3.3900   3.4205   3.4206   3.4522
     3.4522   3.4664   3.5110   3.5110   3.5967   3.6614

     occupation numbers 
     1.0000   1.0000   1.0000   1.0000   1.0000   1.0000   1.0000   1.0000
     1.0000   1.0000   1.0000   1.0000   1.0000   1.0000   1.0000   1.0000
     1.0000   1.0000   1.0000   1.0000   1.0000   1.0000   1.0000   1.0000
     1.0000   1.0000   1.0000   1.0000   1.0000   1.0000   1.0000   1.0000
     1.0000   1.0000   1.0000   1.0000   1.0000   1.0000   1.0000   1.0000
     1.0000   1.0000   1.0000   1.0000   1.0000   1.0000   1.0000   1.0000
     1.0000   1.0000   1.0000   1.0000   1.0000   1.0000   1.0000   1.0000
     1.0000   1.0000   1.0000   1.0000   1.0000   1.0000   1.0000   1.0000
     1.0000   1.0000   1.0000   1.0000   1.0000   1.0000   1.0000   1.0000
     1.0000   1.0000   1.0000   1.0000   1.0000   1.0000   1.0000   1.0000
     1.0000   1.0000   1.0000   1.0000   1.0000   1.0000   1.0000   1.0000
     1.0000   1.0000   1.0000   1.0000   1.0000   1.0000   1.0000   1.0000
     1.0000   1.0000   1.0000   1.0000   1.0000   1.0000   1.0000   1.0000
     1.0000   1.0000   1.0000   1.0000   1.0000   1.0000   1.0000   1.0000
     1.0000   1.0000   1.0000   1.0000   1.0000   1.0000   1.0000   1.0000
     1.0000   1.0000   1.0000   1.0000   1.0000   1.0000   1.0000   1.0000
     1.0000   1.0000   1.0000   1.0000   1.0000   1.0000   1.0000   1.0000
     1.0000   1.0000   1.0000   1.0000   1.0000   1.0000   1.0000   1.0000
     1.0000   1.0000   1.0000   1.0000   1.0000   1.0000   1.0000   1.0000
     1.0000   1.0000   1.0000   1.0000   1.0000   1.0000   1.0000   1.0000
     1.0000   1.0000   1.0000   1.0000   1.0000   1.0000   1.0000   1.0000
     1.0000   1.0000   1.0000   1.0000   1.0000   1.0000   1.0000   1.0000
     1.0000   1.0000   1.0000   1.0000   1.0000   1.0000   1.0000   1.0000
     1.0000   1.0000   1.0000   1.0000   1.0000   1.0000   1.0000   1.0000
     1.0000   1.0000   1.0000   1.0000   1.0000   1.0000   1.0000   1.0000
     1.0000   1.0000   1.0000   1.0000   0.9992   0.0002   0.0002   0.0000
     0.0000   0.0000   0.0000   0.0000   0.0000   0.0000   0.0000   0.0000
     0.0000   0.0000   0.0000   0.0000   0.0000   0.0000   0.0000   0.0000
     0.0000   0.0000   0.0000   0.0000   0.0000   0.0000   0.0000   0.0000
     0.0000   0.0000   0.0000   0.0000   0.0000   0.0000   0.0000   0.0000
     0.0000   0.0000   0.0000   0.0000   0.0000   0.0000

          k = 0.0000 0.1925 0.0000 (126305 PWs)   bands (ev):

   -60.3637 -60.3571 -60.3567 -60.3452 -60.3384 -60.3382 -60.3334 -60.3094
   -60.3094 -60.3080 -60.3001 -60.3000 -60.2962 -60.2927 -60.2763 -60.2761
   -34.6592 -34.6571 -34.6143 -34.5996 -34.5918 -34.5893 -34.5695 -34.5618
   -34.5329 -34.5090 -34.4921 -34.4841 -34.4754 -34.4684 -34.4568 -34.4547
   -34.4535 -34.4443 -34.4440 -34.4396 -34.4357 -34.4291 -34.4281 -34.4242
   -34.4215 -34.4057 -34.4056 -34.4041 -34.3973 -34.3950 -34.3878 -34.3878
   -34.3852 -34.3790 -34.3782 -34.3750 -34.3692 -34.3679 -34.3571 -34.3570
   -34.3420 -34.3405 -34.3345 -34.3068 -34.2974 -34.2939 -34.2176 -34.2157
   -13.4397 -12.8945 -12.7931 -12.7477 -12.5605 -12.5129 -12.4271 -12.1588
   -11.9512 -11.9185 -11.8863 -11.8638 -11.8453 -11.8118 -11.7851 -11.7617
   -11.7172 -11.7086 -11.6805 -11.6789 -11.6293 -11.5815 -11.5500 -11.5185
   -11.5005 -11.4813 -11.4667 -11.4438 -11.4383 -11.4032 -11.3837  -5.1630
    -5.0664  -5.0658  -4.9561  -4.5832  -4.5526  -4.5519  -4.5355  -4.5190
    -4.4892  -4.4685  -4.4421  -4.4291  -4.4200  -4.4089  -4.3916  -4.3895
    -4.3022  -4.2693  -4.2520  -4.1651  -4.0948  -4.0850  -3.9107  -3.8891
    -3.4691  -3.4688  -3.4206  -3.3347  -3.3066  -3.2766  -3.2746  -3.1936
    -3.1613  -3.1596  -3.1299  -3.1090  -3.0992  -3.0836  -3.0760  -3.0103
    -3.0059  -2.9020  -2.7602  -2.7524  -2.6961  -2.6760  -2.6451  -2.6428
    -2.5915  -2.5872  -2.5608  -2.5561  -2.5431  -2.3949  -2.2971  -2.2935
    -2.1615  -2.1501  -2.1134  -2.1015  -2.0661  -2.0136  -2.0008  -1.9697
    -1.9270  -1.8002  -1.6388  -1.6026  -1.4383  -1.4119  -1.3194  -1.2935
    -1.2464  -1.2391  -1.2218  -1.2071  -1.1508  -1.1437  -1.0685  -1.0618
    -1.0205  -0.9633  -0.9110  -0.9038  -0.8226  -0.7991  -0.7507  -0.6725
    -0.6617  -0.6122  -0.6034  -0.5150  -0.3312  -0.2630  -0.2302  -0.1601
    -0.1304  -0.1286  -0.0516  -0.0391  -0.0306   0.0133   0.0158   0.0326
     0.1126   0.1878   0.1897   0.4345   0.6644   1.7444   1.7494   2.5677
     2.5810   2.6807   2.6889   2.7109   2.7197   2.7224   2.7296   2.7566
     2.7627   2.7857   2.7935   2.8279   2.8324   2.8663   2.8909   2.9616
     2.9729   3.0075   3.1085   3.1148   3.1878   3.2219   3.2419   3.2525
     3.2829   3.2885   3.3217   3.3453   3.3697   3.3798   3.4208   3.4374
     3.5159   3.5330   3.6084   3.6257   3.6439   3.6471

     occupation numbers 
     1.0000   1.0000   1.0000   1.0000   1.0000   1.0000   1.0000   1.0000
     1.0000   1.0000   1.0000   1.0000   1.0000   1.0000   1.0000   1.0000
     1.0000   1.0000   1.0000   1.0000   1.0000   1.0000   1.0000   1.0000
     1.0000   1.0000   1.0000   1.0000   1.0000   1.0000   1.0000   1.0000
     1.0000   1.0000   1.0000   1.0000   1.0000   1.0000   1.0000   1.0000
     1.0000   1.0000   1.0000   1.0000   1.0000   1.0000   1.0000   1.0000
     1.0000   1.0000   1.0000   1.0000   1.0000   1.0000   1.0000   1.0000
     1.0000   1.0000   1.0000   1.0000   1.0000   1.0000   1.0000   1.0000
     1.0000   1.0000   1.0000   1.0000   1.0000   1.0000   1.0000   1.0000
     1.0000   1.0000   1.0000   1.0000   1.0000   1.0000   1.0000   1.0000
     1.0000   1.0000   1.0000   1.0000   1.0000   1.0000   1.0000   1.0000
     1.0000   1.0000   1.0000   1.0000   1.0000   1.0000   1.0000   1.0000
     1.0000   1.0000   1.0000   1.0000   1.0000   1.0000   1.0000   1.0000
     1.0000   1.0000   1.0000   1.0000   1.0000   1.0000   1.0000   1.0000
     1.0000   1.0000   1.0000   1.0000   1.0000   1.0000   1.0000   1.0000
     1.0000   1.0000   1.0000   1.0000   1.0000   1.0000   1.0000   1.0000
     1.0000   1.0000   1.0000   1.0000   1.0000   1.0000   1.0000   1.0000
     1.0000   1.0000   1.0000   1.0000   1.0000   1.0000   1.0000   1.0000
     1.0000   1.0000   1.0000   1.0000   1.0000   1.0000   1.0000   1.0000
     1.0000   1.0000   1.0000   1.0000   1.0000   1.0000   1.0000   1.0000
     1.0000   1.0000   1.0000   1.0000   1.0000   1.0000   1.0000   1.0000
     1.0000   1.0000   1.0000   1.0000   1.0000   1.0000   1.0000   1.0000
     1.0000   1.0000   1.0000   1.0000   1.0000   1.0000   1.0000   1.0000
     1.0000   1.0000   1.0000   1.0000   1.0000   1.0000   1.0000   1.0000
     1.0000   1.0000   1.0000   1.0000   1.0000   1.0000   1.0000   1.0000
     1.0000   1.0000   1.0000   1.0000   0.9994   0.0002   0.0002   0.0000
     0.0000   0.0000   0.0000   0.0000   0.0000   0.0000   0.0000   0.0000
     0.0000   0.0000   0.0000   0.0000   0.0000   0.0000   0.0000   0.0000
     0.0000   0.0000   0.0000   0.0000   0.0000   0.0000   0.0000   0.0000
     0.0000   0.0000   0.0000   0.0000   0.0000   0.0000   0.0000   0.0000
     0.0000   0.0000   0.0000   0.0000   0.0000   0.0000

          k = 0.0000 0.3849 0.0000 (126328 PWs)   bands (ev):

   -60.3631 -60.3578 -60.3567 -60.3449 -60.3389 -60.3381 -60.3330 -60.3093
   -60.3093 -60.3079 -60.3004 -60.3002 -60.2960 -60.2926 -60.2763 -60.2761
   -34.6520 -34.6437 -34.6104 -34.6068 -34.5954 -34.5908 -34.5717 -34.5540
   -34.5493 -34.5341 -34.5106 -34.4858 -34.4761 -34.4734 -34.4596 -34.4569
   -34.4539 -34.4421 -34.4341 -34.4321 -34.4307 -34.4276 -34.4257 -34.4122
   -34.4089 -34.4060 -34.4046 -34.3973 -34.3916 -34.3913 -34.3890 -34.3859
   -34.3831 -34.3791 -34.3774 -34.3768 -34.3670 -34.3577 -34.3570 -34.3537
   -34.3503 -34.3462 -34.3361 -34.3079 -34.3075 -34.2939 -34.2223 -34.2163
   -13.3670 -13.0850 -12.8533 -12.7992 -12.4032 -12.3675 -12.2152 -12.1304
   -12.0453 -12.0396 -11.9911 -11.9358 -11.8945 -11.8250 -11.7529 -11.7370
   -11.7055 -11.6836 -11.6821 -11.6683 -11.6350 -11.5935 -11.5624 -11.5211
   -11.5035 -11.4781 -11.4638 -11.4439 -11.4386 -11.3732 -11.3474  -5.0578
    -4.9725  -4.9692  -4.8714  -4.7235  -4.6799  -4.6619  -4.6157  -4.6067
    -4.5763  -4.5103  -4.4988  -4.4366  -4.4261  -4.4093  -4.3656  -4.3530
    -4.3106  -4.2489  -4.2282  -4.1712  -4.0299  -3.9352  -3.7436  -3.7116
    -3.5321  -3.4305  -3.4282  -3.3774  -3.3296  -3.3104  -3.3077  -3.2879
    -3.2613  -3.2439  -3.2394  -3.2016  -3.1563  -3.1516  -3.1273  -3.0080
    -2.9420  -2.7995  -2.6977  -2.6815  -2.6513  -2.6387  -2.6282  -2.6280
    -2.5987  -2.5574  -2.5421  -2.4844  -2.4393  -2.4094  -2.3833  -2.3249
    -2.3098  -2.2366  -2.1082  -2.0845  -2.0160  -1.9386  -1.8524  -1.7603
    -1.7468  -1.6830  -1.6827  -1.5807  -1.5758  -1.4691  -1.3830  -1.3670
    -1.3186  -1.3094  -1.2277  -1.2217  -1.1716  -1.1629  -1.1362  -1.1239
    -1.0152  -1.0065  -0.9509  -0.9101  -0.8163  -0.7878  -0.7479  -0.6809
    -0.6163  -0.6053  -0.5018  -0.4637  -0.3853  -0.3127  -0.2724  -0.2366
    -0.2021  -0.1935  -0.0133   0.0064   0.0173   0.0411   0.0509   0.0619
     0.2914   0.3232   0.3283   0.4502   0.6152   1.7442   1.7626   2.4241
     2.4532   2.6053   2.6333   2.6576   2.6888   2.6957   2.7202   2.7379
     2.7569   2.7731   2.8029   2.8468   2.8736   2.9007   2.9315   2.9928
     3.0085   3.0451   3.0614   3.0962   3.1031   3.1213   3.1495   3.1743
     3.2014   3.2557   3.2707   3.3015   3.3424   3.3524   3.3711   3.4669
     3.5106   3.5348   3.5794   3.6577   3.7378   3.7439

     occupation numbers 
     1.0000   1.0000   1.0000   1.0000   1.0000   1.0000   1.0000   1.0000
     1.0000   1.0000   1.0000   1.0000   1.0000   1.0000   1.0000   1.0000
     1.0000   1.0000   1.0000   1.0000   1.0000   1.0000   1.0000   1.0000
     1.0000   1.0000   1.0000   1.0000   1.0000   1.0000   1.0000   1.0000
     1.0000   1.0000   1.0000   1.0000   1.0000   1.0000   1.0000   1.0000
     1.0000   1.0000   1.0000   1.0000   1.0000   1.0000   1.0000   1.0000
     1.0000   1.0000   1.0000   1.0000   1.0000   1.0000   1.0000   1.0000
     1.0000   1.0000   1.0000   1.0000   1.0000   1.0000   1.0000   1.0000
     1.0000   1.0000   1.0000   1.0000   1.0000   1.0000   1.0000   1.0000
     1.0000   1.0000   1.0000   1.0000   1.0000   1.0000   1.0000   1.0000
     1.0000   1.0000   1.0000   1.0000   1.0000   1.0000   1.0000   1.0000
     1.0000   1.0000   1.0000   1.0000   1.0000   1.0000   1.0000   1.0000
     1.0000   1.0000   1.0000   1.0000   1.0000   1.0000   1.0000   1.0000
     1.0000   1.0000   1.0000   1.0000   1.0000   1.0000   1.0000   1.0000
     1.0000   1.0000   1.0000   1.0000   1.0000   1.0000   1.0000   1.0000
     1.0000   1.0000   1.0000   1.0000   1.0000   1.0000   1.0000   1.0000
     1.0000   1.0000   1.0000   1.0000   1.0000   1.0000   1.0000   1.0000
     1.0000   1.0000   1.0000   1.0000   1.0000   1.0000   1.0000   1.0000
     1.0000   1.0000   1.0000   1.0000   1.0000   1.0000   1.0000   1.0000
     1.0000   1.0000   1.0000   1.0000   1.0000   1.0000   1.0000   1.0000
     1.0000   1.0000   1.0000   1.0000   1.0000   1.0000   1.0000   1.0000
     1.0000   1.0000   1.0000   1.0000   1.0000   1.0000   1.0000   1.0000
     1.0000   1.0000   1.0000   1.0000   1.0000   1.0000   1.0000   1.0000
     1.0000   1.0000   1.0000   1.0000   1.0000   1.0000   1.0000   1.0000
     1.0000   1.0000   1.0000   1.0000   1.0000   1.0000   1.0000   1.0000
     1.0000   1.0000   1.0000   1.0000   0.9997   0.0002   0.0002   0.0000
     0.0000   0.0000   0.0000   0.0000   0.0000   0.0000   0.0000   0.0000
     0.0000   0.0000   0.0000   0.0000   0.0000   0.0000   0.0000   0.0000
     0.0000   0.0000   0.0000   0.0000   0.0000   0.0000   0.0000   0.0000
     0.0000   0.0000   0.0000   0.0000   0.0000   0.0000   0.0000   0.0000
     0.0000   0.0000   0.0000   0.0000   0.0000   0.0000

          k = 0.0000-0.5774 0.0000 (126288 PWs)   bands (ev):

   -60.3628 -60.3582 -60.3567 -60.3448 -60.3391 -60.3381 -60.3329 -60.3093
   -60.3092 -60.3078 -60.3006 -60.3004 -60.2959 -60.2926 -60.2763 -60.2761
   -34.6466 -34.6298 -34.6178 -34.6144 -34.5940 -34.5898 -34.5696 -34.5586
   -34.5481 -34.5462 -34.5204 -34.4821 -34.4802 -34.4721 -34.4665 -34.4605
   -34.4541 -34.4428 -34.4333 -34.4274 -34.4249 -34.4227 -34.4217 -34.4076
   -34.4060 -34.4055 -34.3987 -34.3973 -34.3960 -34.3912 -34.3900 -34.3898
   -34.3817 -34.3789 -34.3694 -34.3681 -34.3678 -34.3588 -34.3574 -34.3558
   -34.3558 -34.3389 -34.3372 -34.3168 -34.3088 -34.2936 -34.2249 -34.2166
   -13.2684 -13.2237 -12.8737 -12.8176 -12.2443 -12.2299 -12.2253 -12.1625
   -12.0968 -12.0760 -12.0193 -11.9523 -11.9441 -11.8991 -11.7092 -11.7052
   -11.6972 -11.6783 -11.6675 -11.6667 -11.6563 -11.6027 -11.5964 -11.5522
   -11.4823 -11.4609 -11.4591 -11.4408 -11.4386 -11.3622 -11.3344  -4.9257
    -4.8767  -4.8672  -4.8472  -4.7926  -4.7898  -4.7603  -4.7128  -4.6583
    -4.6567  -4.4950  -4.4932  -4.4490  -4.4421  -4.4152  -4.3399  -4.3309
    -4.3017  -4.2459  -4.2296  -4.1474  -4.0338  -3.8103  -3.7353  -3.5690
    -3.5058  -3.4376  -3.4351  -3.3816  -3.3724  -3.3640  -3.3343  -3.3314
    -3.3054  -3.2946  -3.2813  -3.2405  -3.1973  -3.1749  -3.1329  -2.9909
    -2.9646  -2.6691  -2.6615  -2.6345  -2.6338  -2.5992  -2.5901  -2.5703
    -2.5677  -2.5546  -2.5473  -2.5275  -2.5191  -2.4332  -2.4260  -2.3921
    -2.3580  -2.2292  -2.1065  -2.0373  -2.0249  -1.9260  -1.8576  -1.8301
    -1.6923  -1.5106  -1.4983  -1.4373  -1.4071  -1.4007  -1.3987  -1.3748
    -1.3591  -1.3516  -1.3272  -1.3158  -1.2898  -1.2159  -1.1914  -1.1709
    -1.1642  -1.1621  -0.9604  -0.9338  -0.8059  -0.7231  -0.7029  -0.6549
    -0.6354  -0.5959  -0.4408  -0.4122  -0.3565  -0.3197  -0.2954  -0.2728
    -0.2537  -0.2206  -0.0010   0.0316   0.0335   0.0503   0.0682   0.0752
     0.3683   0.3820   0.3990   0.4715   0.5652   1.7437   1.7712   2.3598
     2.3981   2.5668   2.5969   2.6117   2.6593   2.6838   2.7190   2.7388
     2.7584   2.7692   2.8047   2.8397   2.8870   2.9931   3.0032   3.0194
     3.0234   3.0386   3.0476   3.0553   3.0608   3.0761   3.0772   3.1332
     3.1450   3.2071   3.2983   3.3007   3.3262   3.3264   3.3454   3.4975
     3.5155   3.5319   3.6247   3.6632   3.6814   3.7424

     occupation numbers 
     1.0000   1.0000   1.0000   1.0000   1.0000   1.0000   1.0000   1.0000
     1.0000   1.0000   1.0000   1.0000   1.0000   1.0000   1.0000   1.0000
     1.0000   1.0000   1.0000   1.0000   1.0000   1.0000   1.0000   1.0000
     1.0000   1.0000   1.0000   1.0000   1.0000   1.0000   1.0000   1.0000
     1.0000   1.0000   1.0000   1.0000   1.0000   1.0000   1.0000   1.0000
     1.0000   1.0000   1.0000   1.0000   1.0000   1.0000   1.0000   1.0000
     1.0000   1.0000   1.0000   1.0000   1.0000   1.0000   1.0000   1.0000
     1.0000   1.0000   1.0000   1.0000   1.0000   1.0000   1.0000   1.0000
     1.0000   1.0000   1.0000   1.0000   1.0000   1.0000   1.0000   1.0000
     1.0000   1.0000   1.0000   1.0000   1.0000   1.0000   1.0000   1.0000
     1.0000   1.0000   1.0000   1.0000   1.0000   1.0000   1.0000   1.0000
     1.0000   1.0000   1.0000   1.0000   1.0000   1.0000   1.0000   1.0000
     1.0000   1.0000   1.0000   1.0000   1.0000   1.0000   1.0000   1.0000
     1.0000   1.0000   1.0000   1.0000   1.0000   1.0000   1.0000   1.0000
     1.0000   1.0000   1.0000   1.0000   1.0000   1.0000   1.0000   1.0000
     1.0000   1.0000   1.0000   1.0000   1.0000   1.0000   1.0000   1.0000
     1.0000   1.0000   1.0000   1.0000   1.0000   1.0000   1.0000   1.0000
     1.0000   1.0000   1.0000   1.0000   1.0000   1.0000   1.0000   1.0000
     1.0000   1.0000   1.0000   1.0000   1.0000   1.0000   1.0000   1.0000
     1.0000   1.0000   1.0000   1.0000   1.0000   1.0000   1.0000   1.0000
     1.0000   1.0000   1.0000   1.0000   1.0000   1.0000   1.0000   1.0000
     1.0000   1.0000   1.0000   1.0000   1.0000   1.0000   1.0000   1.0000
     1.0000   1.0000   1.0000   1.0000   1.0000   1.0000   1.0000   1.0000
     1.0000   1.0000   1.0000   1.0000   1.0000   1.0000   1.0000   1.0000
     1.0000   1.0000   1.0000   1.0000   1.0000   1.0000   1.0000   1.0000
     1.0000   1.0000   1.0000   1.0000   0.9999   0.0002   0.0001   0.0000
     0.0000   0.0000   0.0000   0.0000   0.0000   0.0000   0.0000   0.0000
     0.0000   0.0000   0.0000   0.0000   0.0000   0.0000   0.0000   0.0000
     0.0000   0.0000   0.0000   0.0000   0.0000   0.0000   0.0000   0.0000
     0.0000   0.0000   0.0000   0.0000   0.0000   0.0000   0.0000   0.0000
     0.0000   0.0000   0.0000   0.0000   0.0000   0.0000

          k = 0.1667 0.2887 0.0000 (126343 PWs)   bands (ev):

   -60.3633 -60.3576 -60.3567 -60.3450 -60.3387 -60.3382 -60.3331 -60.3094
   -60.3093 -60.3079 -60.3003 -60.3002 -60.2960 -60.2926 -60.2763 -60.2761
   -34.6540 -34.6480 -34.6086 -34.6046 -34.5996 -34.5831 -34.5763 -34.5594
   -34.5412 -34.5292 -34.5019 -34.4947 -34.4740 -34.4666 -34.4574 -34.4552
   -34.4542 -34.4426 -34.4389 -34.4347 -34.4310 -34.4282 -34.4261 -34.4249
   -34.4069 -34.4052 -34.4026 -34.3971 -34.3945 -34.3904 -34.3883 -34.3871
   -34.3846 -34.3796 -34.3786 -34.3743 -34.3677 -34.3602 -34.3569 -34.3567
   -34.3476 -34.3448 -34.3359 -34.3083 -34.3032 -34.2944 -34.2209 -34.2162
   -13.3909 -12.9930 -12.9576 -12.6421 -12.5796 -12.3175 -12.3021 -12.1399
   -12.0415 -11.9865 -11.9690 -11.8653 -11.8517 -11.8305 -11.7957 -11.7649
   -11.7482 -11.6991 -11.6915 -11.6284 -11.6011 -11.5893 -11.5393 -11.5297
   -11.5034 -11.4938 -11.4897 -11.4459 -11.4056 -11.3975 -11.3512  -5.0915
    -5.0023  -5.0004  -4.8990  -4.6681  -4.6409  -4.6145  -4.5797  -4.5484
    -4.5420  -4.5226  -4.5089  -4.4899  -4.4505  -4.4426  -4.3857  -4.3615
    -4.2954  -4.2368  -4.2007  -4.0984  -4.0514  -3.9807  -3.8804  -3.7093
    -3.4498  -3.4469  -3.4386  -3.4151  -3.3568  -3.3253  -3.2896  -3.2687
    -3.2317  -3.2257  -3.1862  -3.1744  -3.1350  -3.1168  -3.0564  -2.9777
    -2.9387  -2.8902  -2.8221  -2.7792  -2.6952  -2.6670  -2.6227  -2.6000
    -2.5688  -2.5424  -2.5175  -2.4793  -2.3947  -2.3608  -2.3026  -2.2799
    -2.2592  -2.2361  -2.2139  -2.1459  -2.0573  -1.9555  -1.8715  -1.7763
    -1.7432  -1.7419  -1.6491  -1.6232  -1.5962  -1.4739  -1.3822  -1.3390
    -1.3110  -1.2592  -1.2378  -1.2266  -1.1969  -1.1321  -1.1010  -1.0551
    -0.9990  -0.9636  -0.9498  -0.9186  -0.8286  -0.7973  -0.7372  -0.6812
    -0.6217  -0.5907  -0.5447  -0.5250  -0.3541  -0.3407  -0.2300  -0.2000
    -0.1391  -0.1343  -0.1158  -0.0992  -0.0515   0.0625   0.1186   0.1522
     0.2115   0.2222   0.3425   0.4435   0.6312   1.7400   1.7636   2.4027
     2.5919   2.6048   2.6272   2.6681   2.6822   2.7091   2.7224   2.7430
     2.7666   2.7759   2.8097   2.8336   2.8574   2.8821   2.9234   2.9803
     3.0059   3.0435   3.0679   3.0994   3.1361   3.1521   3.1697   3.1807
     3.2159   3.2359   3.2931   3.3023   3.3035   3.3644   3.3847   3.4653
     3.5314   3.5506   3.6330   3.6853   3.7074   3.7217

     occupation numbers 
     1.0000   1.0000   1.0000   1.0000   1.0000   1.0000   1.0000   1.0000
     1.0000   1.0000   1.0000   1.0000   1.0000   1.0000   1.0000   1.0000
     1.0000   1.0000   1.0000   1.0000   1.0000   1.0000   1.0000   1.0000
     1.0000   1.0000   1.0000   1.0000   1.0000   1.0000   1.0000   1.0000
     1.0000   1.0000   1.0000   1.0000   1.0000   1.0000   1.0000   1.0000
     1.0000   1.0000   1.0000   1.0000   1.0000   1.0000   1.0000   1.0000
     1.0000   1.0000   1.0000   1.0000   1.0000   1.0000   1.0000   1.0000
     1.0000   1.0000   1.0000   1.0000   1.0000   1.0000   1.0000   1.0000
     1.0000   1.0000   1.0000   1.0000   1.0000   1.0000   1.0000   1.0000
     1.0000   1.0000   1.0000   1.0000   1.0000   1.0000   1.0000   1.0000
     1.0000   1.0000   1.0000   1.0000   1.0000   1.0000   1.0000   1.0000
     1.0000   1.0000   1.0000   1.0000   1.0000   1.0000   1.0000   1.0000
     1.0000   1.0000   1.0000   1.0000   1.0000   1.0000   1.0000   1.0000
     1.0000   1.0000   1.0000   1.0000   1.0000   1.0000   1.0000   1.0000
     1.0000   1.0000   1.0000   1.0000   1.0000   1.0000   1.0000   1.0000
     1.0000   1.0000   1.0000   1.0000   1.0000   1.0000   1.0000   1.0000
     1.0000   1.0000   1.0000   1.0000   1.0000   1.0000   1.0000   1.0000
     1.0000   1.0000   1.0000   1.0000   1.0000   1.0000   1.0000   1.0000
     1.0000   1.0000   1.0000   1.0000   1.0000   1.0000   1.0000   1.0000
     1.0000   1.0000   1.0000   1.0000   1.0000   1.0000   1.0000   1.0000
     1.0000   1.0000   1.0000   1.0000   1.0000   1.0000   1.0000   1.0000
     1.0000   1.0000   1.0000   1.0000   1.0000   1.0000   1.0000   1.0000
     1.0000   1.0000   1.0000   1.0000   1.0000   1.0000   1.0000   1.0000
     1.0000   1.0000   1.0000   1.0000   1.0000   1.0000   1.0000   1.0000
     1.0000   1.0000   1.0000   1.0000   1.0000   1.0000   1.0000   1.0000
     1.0000   1.0000   1.0000   1.0000   0.9996   0.0002   0.0002   0.0000
     0.0000   0.0000   0.0000   0.0000   0.0000   0.0000   0.0000   0.0000
     0.0000   0.0000   0.0000   0.0000   0.0000   0.0000   0.0000   0.0000
     0.0000   0.0000   0.0000   0.0000   0.0000   0.0000   0.0000   0.0000
     0.0000   0.0000   0.0000   0.0000   0.0000   0.0000   0.0000   0.0000
     0.0000   0.0000   0.0000   0.0000   0.0000   0.0000

          k = 0.1667 0.4811 0.0000 (126406 PWs)   bands (ev):

   -60.3628 -60.3582 -60.3568 -60.3448 -60.3390 -60.3381 -60.3329 -60.3093
   -60.3092 -60.3078 -60.3006 -60.3004 -60.2959 -60.2926 -60.2763 -60.2761
   -34.6463 -34.6335 -34.6155 -34.6061 -34.6008 -34.5873 -34.5734 -34.5618
   -34.5562 -34.5316 -34.5174 -34.4978 -34.4731 -34.4721 -34.4600 -34.4556
   -34.4492 -34.4436 -34.4417 -34.4334 -34.4277 -34.4245 -34.4211 -34.4086
   -34.4069 -34.4049 -34.4014 -34.3977 -34.3918 -34.3903 -34.3876 -34.3838
   -34.3801 -34.3787 -34.3731 -34.3714 -34.3644 -34.3579 -34.3573 -34.3559
   -34.3542 -34.3429 -34.3376 -34.3166 -34.3075 -34.2946 -34.2243 -34.2170
   -13.2969 -13.1523 -13.0139 -12.6503 -12.4325 -12.2438 -12.1631 -12.1150
   -12.0842 -12.0507 -12.0063 -11.9768 -11.8927 -11.8488 -11.8123 -11.7711
   -11.7509 -11.6865 -11.6425 -11.6232 -11.6099 -11.5820 -11.5704 -11.5463
   -11.5082 -11.5002 -11.4753 -11.4218 -11.4084 -11.3769 -11.3298  -4.9614
    -4.8896  -4.8819  -4.7963  -4.7827  -4.7570  -4.7148  -4.6829  -4.6435
    -4.6252  -4.6031  -4.5563  -4.5039  -4.4867  -4.4147  -4.3653  -4.3483
    -4.2745  -4.2526  -4.1051  -4.0553  -3.9668  -3.8756  -3.7806  -3.6593
    -3.5754  -3.4184  -3.4074  -3.3834  -3.3527  -3.3412  -3.3245  -3.3088
    -3.2957  -3.2796  -3.2672  -3.2333  -3.2277  -3.1433  -3.1038  -3.0062
    -2.9171  -2.8223  -2.7438  -2.6969  -2.6618  -2.6285  -2.5992  -2.5755
    -2.5441  -2.5140  -2.4999  -2.4796  -2.4515  -2.4257  -2.3948  -2.3777
    -2.3005  -2.2576  -2.1573  -2.0330  -2.0008  -1.8635  -1.8147  -1.7720
    -1.6966  -1.6737  -1.6048  -1.4992  -1.4795  -1.4493  -1.3975  -1.3612
    -1.3543  -1.3374  -1.3042  -1.2625  -1.2209  -1.2086  -1.1624  -1.1222
    -1.0866  -1.0310  -0.9947  -0.9690  -0.8909  -0.7988  -0.7617  -0.6899
    -0.5704  -0.5502  -0.4532  -0.4342  -0.3300  -0.3039  -0.2623  -0.2439
    -0.2217  -0.1890  -0.1114  -0.0940  -0.0561   0.1062   0.1450   0.2156
     0.2867   0.3575   0.4424   0.4651   0.5728   1.7336   1.7824   2.2778
     2.5255   2.5337   2.5995   2.6272   2.6649   2.6831   2.7088   2.7211
     2.7612   2.7897   2.7983   2.8327   2.8891   2.9550   2.9835   2.9982
     3.0228   3.0415   3.0589   3.0725   3.0851   3.1047   3.1120   3.1228
     3.1577   3.1683   3.1938   3.2386   3.3049   3.3448   3.4130   3.4476
     3.5289   3.5865   3.6741   3.7129   3.7571   3.7676

     occupation numbers 
     1.0000   1.0000   1.0000   1.0000   1.0000   1.0000   1.0000   1.0000
     1.0000   1.0000   1.0000   1.0000   1.0000   1.0000   1.0000   1.0000
     1.0000   1.0000   1.0000   1.0000   1.0000   1.0000   1.0000   1.0000
     1.0000   1.0000   1.0000   1.0000   1.0000   1.0000   1.0000   1.0000
     1.0000   1.0000   1.0000   1.0000   1.0000   1.0000   1.0000   1.0000
     1.0000   1.0000   1.0000   1.0000   1.0000   1.0000   1.0000   1.0000
     1.0000   1.0000   1.0000   1.0000   1.0000   1.0000   1.0000   1.0000
     1.0000   1.0000   1.0000   1.0000   1.0000   1.0000   1.0000   1.0000
     1.0000   1.0000   1.0000   1.0000   1.0000   1.0000   1.0000   1.0000
     1.0000   1.0000   1.0000   1.0000   1.0000   1.0000   1.0000   1.0000
     1.0000   1.0000   1.0000   1.0000   1.0000   1.0000   1.0000   1.0000
     1.0000   1.0000   1.0000   1.0000   1.0000   1.0000   1.0000   1.0000
     1.0000   1.0000   1.0000   1.0000   1.0000   1.0000   1.0000   1.0000
     1.0000   1.0000   1.0000   1.0000   1.0000   1.0000   1.0000   1.0000
     1.0000   1.0000   1.0000   1.0000   1.0000   1.0000   1.0000   1.0000
     1.0000   1.0000   1.0000   1.0000   1.0000   1.0000   1.0000   1.0000
     1.0000   1.0000   1.0000   1.0000   1.0000   1.0000   1.0000   1.0000
     1.0000   1.0000   1.0000   1.0000   1.0000   1.0000   1.0000   1.0000
     1.0000   1.0000   1.0000   1.0000   1.0000   1.0000   1.0000   1.0000
     1.0000   1.0000   1.0000   1.0000   1.0000   1.0000   1.0000   1.0000
     1.0000   1.0000   1.0000   1.0000   1.0000   1.0000   1.0000   1.0000
     1.0000   1.0000   1.0000   1.0000   1.0000   1.0000   1.0000   1.0000
     1.0000   1.0000   1.0000   1.0000   1.0000   1.0000   1.0000   1.0000
     1.0000   1.0000   1.0000   1.0000   1.0000   1.0000   1.0000   1.0000
     1.0000   1.0000   1.0000   1.0000   1.0000   1.0000   1.0000   1.0000
     1.0000   1.0000   1.0000   1.0000   0.9998   0.0002   0.0001   0.0000
     0.0000   0.0000   0.0000   0.0000   0.0000   0.0000   0.0000   0.0000
     0.0000   0.0000   0.0000   0.0000   0.0000   0.0000   0.0000   0.0000
     0.0000   0.0000   0.0000   0.0000   0.0000   0.0000   0.0000   0.0000
     0.0000   0.0000   0.0000   0.0000   0.0000   0.0000   0.0000   0.0000
     0.0000   0.0000   0.0000   0.0000   0.0000   0.0000

          k = 0.3333 0.5774 0.0000 (126429 PWs)   bands (ev):

   -60.3626 -60.3583 -60.3569 -60.3447 -60.3391 -60.3381 -60.3328 -60.3093
   -60.3091 -60.3078 -60.3006 -60.3005 -60.2958 -60.2925 -60.2763 -60.2761
   -34.6417 -34.6297 -34.6168 -34.6041 -34.5973 -34.5933 -34.5828 -34.5624
   -34.5568 -34.5260 -34.5228 -34.5035 -34.4714 -34.4687 -34.4599 -34.4578
   -34.4572 -34.4415 -34.4332 -34.4278 -34.4264 -34.4240 -34.4239 -34.4221
   -34.4078 -34.4043 -34.3978 -34.3922 -34.3916 -34.3881 -34.3877 -34.3830
   -34.3791 -34.3767 -34.3722 -34.3643 -34.3621 -34.3597 -34.3585 -34.3568
   -34.3558 -34.3441 -34.3339 -34.3243 -34.3076 -34.2954 -34.2249 -34.2176
   -13.2030 -13.1906 -13.1310 -12.4781 -12.4736 -12.3936 -12.0814 -12.0592
   -12.0498 -11.9911 -11.9893 -11.9639 -11.9536 -11.9528 -11.8370 -11.7851
   -11.7750 -11.7220 -11.6032 -11.5945 -11.5659 -11.5650 -11.5620 -11.5555
   -11.5514 -11.5408 -11.4707 -11.3982 -11.3948 -11.3900 -11.3215  -4.8531
    -4.7987  -4.7955  -4.7842  -4.7783  -4.7639  -4.7580  -4.7564  -4.6893
    -4.6847  -4.6801  -4.6094  -4.5985  -4.4885  -4.4391  -4.3698  -4.3148
    -4.2634  -4.2607  -3.9529  -3.9326  -3.8681  -3.8538  -3.8526  -3.7561
    -3.6972  -3.4410  -3.3690  -3.3686  -3.3640  -3.3537  -3.3247  -3.3046
    -3.2961  -3.2852  -3.2813  -3.2439  -3.1809  -3.1792  -3.0451  -3.0216
    -2.9572  -2.8216  -2.7397  -2.6334  -2.6246  -2.6028  -2.5926  -2.5803
    -2.5714  -2.5576  -2.5317  -2.5191  -2.5179  -2.5110  -2.4521  -2.3822
    -2.1655  -2.1647  -2.0511  -2.0169  -2.0148  -1.8014  -1.7750  -1.7491
    -1.7360  -1.6814  -1.5976  -1.5384  -1.5056  -1.4918  -1.4783  -1.4204
    -1.3396  -1.3045  -1.2653  -1.2202  -1.1832  -1.0804  -1.0790  -1.0709
    -1.0618  -1.0565  -1.0514  -1.0507  -1.0402  -1.0233  -0.7731  -0.6600
    -0.5529  -0.4859  -0.4477  -0.4049  -0.2830  -0.2466  -0.2438  -0.2207
    -0.2159  -0.2086  -0.1793  -0.1617  -0.1223   0.1603   0.1708   0.2522
     0.3326   0.3813   0.4292   0.5134   0.5427   1.7253   1.7964   2.2113
     2.4940   2.5766   2.5835   2.6364   2.6524   2.6541   2.6976   2.7256
     2.7429   2.7927   2.7961   2.8200   2.9565   2.9646   2.9866   2.9991
     3.0372   3.0464   3.0477   3.0623   3.0659   3.0678   3.0786   3.1123
     3.1318   3.1463   3.1872   3.2128   3.2527   3.2935   3.3723   3.5490
     3.5538   3.6583   3.6811   3.6839   3.7740   3.8114

     occupation numbers 
     1.0000   1.0000   1.0000   1.0000   1.0000   1.0000   1.0000   1.0000
     1.0000   1.0000   1.0000   1.0000   1.0000   1.0000   1.0000   1.0000
     1.0000   1.0000   1.0000   1.0000   1.0000   1.0000   1.0000   1.0000
     1.0000   1.0000   1.0000   1.0000   1.0000   1.0000   1.0000   1.0000
     1.0000   1.0000   1.0000   1.0000   1.0000   1.0000   1.0000   1.0000
     1.0000   1.0000   1.0000   1.0000   1.0000   1.0000   1.0000   1.0000
     1.0000   1.0000   1.0000   1.0000   1.0000   1.0000   1.0000   1.0000
     1.0000   1.0000   1.0000   1.0000   1.0000   1.0000   1.0000   1.0000
     1.0000   1.0000   1.0000   1.0000   1.0000   1.0000   1.0000   1.0000
     1.0000   1.0000   1.0000   1.0000   1.0000   1.0000   1.0000   1.0000
     1.0000   1.0000   1.0000   1.0000   1.0000   1.0000   1.0000   1.0000
     1.0000   1.0000   1.0000   1.0000   1.0000   1.0000   1.0000   1.0000
     1.0000   1.0000   1.0000   1.0000   1.0000   1.0000   1.0000   1.0000
     1.0000   1.0000   1.0000   1.0000   1.0000   1.0000   1.0000   1.0000
     1.0000   1.0000   1.0000   1.0000   1.0000   1.0000   1.0000   1.0000
     1.0000   1.0000   1.0000   1.0000   1.0000   1.0000   1.0000   1.0000
     1.0000   1.0000   1.0000   1.0000   1.0000   1.0000   1.0000   1.0000
     1.0000   1.0000   1.0000   1.0000   1.0000   1.0000   1.0000   1.0000
     1.0000   1.0000   1.0000   1.0000   1.0000   1.0000   1.0000   1.0000
     1.0000   1.0000   1.0000   1.0000   1.0000   1.0000   1.0000   1.0000
     1.0000   1.0000   1.0000   1.0000   1.0000   1.0000   1.0000   1.0000
     1.0000   1.0000   1.0000   1.0000   1.0000   1.0000   1.0000   1.0000
     1.0000   1.0000   1.0000   1.0000   1.0000   1.0000   1.0000   1.0000
     1.0000   1.0000   1.0000   1.0000   1.0000   1.0000   1.0000   1.0000
     1.0000   1.0000   1.0000   1.0000   1.0000   1.0000   1.0000   1.0000
     1.0000   1.0000   1.0000   0.9999   0.9999   0.0003   0.0001   0.0000
     0.0000   0.0000   0.0000   0.0000   0.0000   0.0000   0.0000   0.0000
     0.0000   0.0000   0.0000   0.0000   0.0000   0.0000   0.0000   0.0000
     0.0000   0.0000   0.0000   0.0000   0.0000   0.0000   0.0000   0.0000
     0.0000   0.0000   0.0000   0.0000   0.0000   0.0000   0.0000   0.0000
     0.0000   0.0000   0.0000   0.0000   0.0000   0.0000

     the Fermi energy is     1.1660 ev

!    total energy              =   -2979.42693738 Ry
     estimated scf accuracy    <          4.5E-09 Ry
     smearing contrib. (-TS)   =      -0.00006882 Ry
     internal energy E=F+TS    =   -2979.42686856 Ry

     The total energy is F=E-TS. E is the sum of the following terms:
     one-electron contribution =  -11136.04875872 Ry
     hartree contribution      =    5595.66905986 Ry
     xc contribution           =    -571.48358961 Ry
     ewald contribution        =    3132.43641990 Ry

     total magnetization       =    -0.00 Bohr mag/cell
     absolute magnetization    =     0.00 Bohr mag/cell

     convergence has been achieved in  21 iterations

     negative rho (up, down):  1.432E-03 1.432E-03

     Forces acting on atoms (cartesian axes, Ry/au):

     atom    1 type  1   force =     0.00064692    0.00081050    0.00023390
     atom    2 type  1   force =     0.00102537    0.00015500    0.00023390
     atom    3 type  1   force =     0.00000000   -0.00017535    0.00048171
     atom    4 type  1   force =    -0.00015186    0.00008768    0.00048171
     atom    5 type  1   force =    -0.00000000   -0.00152838   -0.00207234
     atom    6 type  1   force =    -0.00213784   -0.00123428    0.00235252
     atom    7 type  1   force =    -0.00132362    0.00076419   -0.00207234
     atom    8 type  1   force =     0.00015186    0.00008768    0.00048171
     atom    9 type  1   force =    -0.00064692    0.00081050    0.00023390
     atom   10 type  1   force =     0.00213784   -0.00123428    0.00235252
     atom   11 type  1   force =     0.00000000    0.00246856    0.00235252
     atom   12 type  1   force =     0.00037845   -0.00096549    0.00023390
     atom   13 type  1   force =     0.00000000    0.00000000    0.00062063
     atom   14 type  1   force =    -0.00102537    0.00015500    0.00023390
     atom   15 type  1   force =     0.00132362    0.00076419   -0.00207234
     atom   16 type  1   force =    -0.00037845   -0.00096549    0.00023390
     atom   17 type  2   force =    -0.00027426   -0.00015835    0.00048470
     atom   18 type  2   force =     0.00000000    0.00046083    0.00041035
     atom   19 type  2   force =     0.00062273    0.00035953    0.00038880
     atom   20 type  2   force =     0.00039909   -0.00023042    0.00041035
     atom   21 type  2   force =     0.00024561    0.00134088   -0.00065783
     atom   22 type  2   force =     0.00128404   -0.00045773   -0.00065783
     atom   23 type  2   force =    -0.00062273    0.00035953    0.00038880
     atom   24 type  2   force =     0.00000000   -0.00071906    0.00038880
     atom   25 type  2   force =    -0.00024561    0.00134088   -0.00065783
     atom   26 type  2   force =     0.00103843   -0.00088315   -0.00065783
     atom   27 type  2   force =    -0.00039909   -0.00023042    0.00041035
     atom   28 type  2   force =     0.00027426   -0.00015835    0.00048470
     atom   29 type  2   force =    -0.00128404   -0.00045773   -0.00065783
     atom   30 type  2   force =    -0.00103843   -0.00088315   -0.00065783
     atom   31 type  2   force =     0.00000000    0.00031669    0.00048470
     atom   32 type  2   force =    -0.00148552   -0.00085767    0.00023346
     atom   33 type  2   force =     0.00000000    0.00063081   -0.00124260
     atom   34 type  2   force =    -0.00007216   -0.00004166    0.00086107
     atom   35 type  2   force =     0.00054630   -0.00031541   -0.00124260
     atom   36 type  2   force =    -0.00085916   -0.00084579   -0.00038153
     atom   37 type  2   force =    -0.00116206   -0.00032116   -0.00038153
     atom   38 type  2   force =     0.00007216   -0.00004166    0.00086107
     atom   39 type  2   force =    -0.00000000    0.00008332    0.00086107
     atom   40 type  2   force =     0.00085916   -0.00084579   -0.00038153
     atom   41 type  2   force =     0.00000000    0.00000000   -0.00148092
     atom   42 type  2   force =    -0.00030290    0.00116695   -0.00038153
     atom   43 type  2   force =    -0.00054630   -0.00031541   -0.00124260
     atom   44 type  2   force =     0.00148552   -0.00085767    0.00023346
     atom   45 type  2   force =     0.00116206   -0.00032116   -0.00038153
     atom   46 type  2   force =     0.00030290    0.00116695   -0.00038153
     atom   47 type  2   force =     0.00000000    0.00171533    0.00023346
     The non-local contrib.  to forces
     atom    1 type  1   force =    -0.00116792    0.00582952    0.00062040
     atom    2 type  1   force =     0.00446455   -0.00392621    0.00062040
     atom    3 type  1   force =     0.00000000    0.00095467   -0.00098955
     atom    4 type  1   force =     0.00082677   -0.00047734   -0.00098955
     atom    5 type  1   force =     0.00000000   -0.00393519    0.00302098
     atom    6 type  1   force =     0.01363518    0.00787227   -0.03115884
     atom    7 type  1   force =    -0.00340798    0.00196760    0.00302098
     atom    8 type  1   force =    -0.00082677   -0.00047734   -0.00098955
     atom    9 type  1   force =     0.00116792    0.00582952    0.00062040
     atom   10 type  1   force =    -0.01363518    0.00787227   -0.03115884
     atom   11 type  1   force =    -0.00000000   -0.01574455   -0.03115884
     atom   12 type  1   force =     0.00563247   -0.00190331    0.00062040
     atom   13 type  1   force =     0.00000000    0.00000000   -0.00176875
     atom   14 type  1   force =    -0.00446455   -0.00392621    0.00062040
     atom   15 type  1   force =     0.00340798    0.00196760    0.00302098
     atom   16 type  1   force =    -0.00563247   -0.00190331    0.00062040
     atom   17 type  2   force =     0.00063249    0.00036517   -0.28348674
     atom   18 type  2   force =     0.00000000   -0.00242190   -0.28087034
     atom   19 type  2   force =    -0.00033519   -0.00019352   -0.28363715
     atom   20 type  2   force =    -0.00209742    0.00121095   -0.28087034
     atom   21 type  2   force =    -0.00950850   -0.00704350   -0.26867955
     atom   22 type  2   force =    -0.01085410   -0.00471286   -0.26867955
     atom   23 type  2   force =     0.00033519   -0.00019352   -0.28363715
     atom   24 type  2   force =     0.00000000    0.00038704   -0.28363715
     atom   25 type  2   force =     0.00950850   -0.00704350   -0.26867955
     atom   26 type  2   force =    -0.00134560    0.01175636   -0.26867955
     atom   27 type  2   force =     0.00209742    0.00121095   -0.28087034
     atom   28 type  2   force =    -0.00063249    0.00036517   -0.28348674
     atom   29 type  2   force =     0.01085410   -0.00471286   -0.26867955
     atom   30 type  2   force =     0.00134560    0.01175636   -0.26867955
     atom   31 type  2   force =     0.00000000   -0.00073034   -0.28348674
     atom   32 type  2   force =    -0.00059056   -0.00034096    0.28059836
     atom   33 type  2   force =     0.00000000    0.00373120    0.28074600
     atom   34 type  2   force =     0.00046773    0.00027004    0.28087480
     atom   35 type  2   force =     0.00323131   -0.00186560    0.28074600
     atom   36 type  2   force =     0.00296443    0.00161430    0.28080299
     atom   37 type  2   force =     0.00288024    0.00176012    0.28080299
     atom   38 type  2   force =    -0.00046773    0.00027004    0.28087480
     atom   39 type  2   force =     0.00000000   -0.00054009    0.28087480
     atom   40 type  2   force =    -0.00296443    0.00161430    0.28080299
     atom   41 type  2   force =     0.00000000    0.00000000    0.27948374
     atom   42 type  2   force =    -0.00008419   -0.00337442    0.28080299
     atom   43 type  2   force =    -0.00323131   -0.00186560    0.28074600
     atom   44 type  2   force =     0.00059056   -0.00034096    0.28059836
     atom   45 type  2   force =    -0.00288024    0.00176012    0.28080299
     atom   46 type  2   force =     0.00008419   -0.00337442    0.28080299
     atom   47 type  2   force =     0.00000000    0.00068192    0.28059836
     The ionic contribution  to forces
     atom    1 type  1   force =     0.70526695    0.33033497    1.53126290
     atom    2 type  1   force =     0.63869216    0.44564577    1.53125954
     atom    3 type  1   force =     0.00003139    0.16115376    0.60613807
     atom    4 type  1   force =     0.13958070   -0.08058839    0.60613923
     atom    5 type  1   force =     0.00001844    0.50285745    0.62051578
     atom    6 type  1   force =     3.36615703    1.94345787    3.55604897
     atom    7 type  1   force =     0.43543871   -0.25140546    0.62051366
     atom    8 type  1   force =    -0.13955039   -0.08060056    0.60614148
     atom    9 type  1   force =    -0.70527243    0.33035037    1.53125920
     atom   10 type  1   force =    -3.36609099    1.94344242    3.55604346
     atom   11 type  1   force =     0.00001260   -3.88691175    3.55605219
     atom   12 type  1   force =    -0.06659901   -0.77594334    1.53125679
     atom   13 type  1   force =    -0.00001795    0.00001907    1.04288513
     atom   14 type  1   force =    -0.63874678    0.44563055    1.53125853
     atom   15 type  1   force =    -0.43548912   -0.25147343    0.62051874
     atom   16 type  1   force =     0.06657346   -0.77595839    1.53125368
     atom   17 type  2   force =     0.28483861    0.16444689   32.57831372
     atom   18 type  2   force =     0.00000342    0.07266460   32.47109019
     atom   19 type  2   force =    -0.22183898   -0.12808368   32.18926133
     atom   20 type  2   force =     0.06292180   -0.03632598   32.47110876
     atom   21 type  2   force =     0.54966817    1.26833725   32.44251742
     atom   22 type  2   force =     1.37324535   -0.15813492   32.44251035
     atom   23 type  2   force =     0.22184136   -0.12808559   32.18924506
     atom   24 type  2   force =     0.00000269    0.25615450   32.18926006
     atom   25 type  2   force =    -0.54966073    1.26835625   32.44250878
     atom   26 type  2   force =     0.82357512   -1.11020046   32.44251038
     atom   27 type  2   force =    -0.06292599   -0.03633328   32.47108839
     atom   28 type  2   force =    -0.28484052    0.16445005   32.57830477
     atom   29 type  2   force =    -1.37325855   -0.15814746   32.44249616
     atom   30 type  2   force =    -0.82357460   -1.11020497   32.44251277
     atom   31 type  2   force =    -0.00000085   -0.32889715   32.57832071
     atom   32 type  2   force =    -0.05869353   -0.03388945  -31.93400430
     atom   33 type  2   force =     0.00000312   -0.01585478  -31.90808481
     atom   34 type  2   force =    -0.00718778   -0.00415725  -31.91932442
     atom   35 type  2   force =    -0.01373863    0.00792938  -31.90810846
     atom   36 type  2   force =    -0.09898808   -0.19737123  -31.96272897
     atom   37 type  2   force =    -0.22042567    0.01296664  -31.96272138
     atom   38 type  2   force =     0.00719500   -0.00415936  -31.91930880
     atom   39 type  2   force =     0.00000320    0.00830118  -31.91932306
     atom   40 type  2   force =     0.09899383   -0.19734805  -31.96272300
     atom   41 type  2   force =     0.00001388   -0.00000265  -31.88902695
     atom   42 type  2   force =    -0.12144219    0.18440849  -31.96272170
     atom   43 type  2   force =     0.01373457    0.00792619  -31.90808297
     atom   44 type  2   force =     0.05868953   -0.03388682  -31.93399044
     atom   45 type  2   force =     0.22040574    0.01295226  -31.96271040
     atom   46 type  2   force =     0.12143737    0.18440392  -31.96272493
     atom   47 type  2   force =    -0.00000139    0.06777458  -31.93401162
     The local contribution  to forces
     atom    1 type  1   force =    -0.70384327   -0.33507198   -1.53174255
     atom    2 type  1   force =    -0.64221495   -0.44195895   -1.53174216
     atom    3 type  1   force =     0.00013498   -0.16242096   -0.60467812
     atom    4 type  1   force =    -0.14054522    0.08105940   -0.60467754
     atom    5 type  1   force =     0.00006545   -0.50029200   -0.62520537
     atom    6 type  1   force =    -3.38159275   -1.95229665   -3.52573472
     atom    7 type  1   force =    -0.43336254    0.25014266   -0.62520557
     atom    8 type  1   force =     0.14067670    0.08105958   -0.60467801
     atom    9 type  1   force =     0.70383799   -0.33520922   -1.53174176
     atom   10 type  1   force =     3.38172754   -1.95243518   -3.52574135
     atom   11 type  1   force =    -0.00007003    3.90458607   -3.52572827
     atom   12 type  1   force =     0.06155848    0.77702198   -1.53174200
     atom   13 type  1   force =    -0.00014150    0.00004725   -1.04060602
     atom   14 type  1   force =     0.64207066   -0.44195884   -1.53174129
     atom   15 type  1   force =     0.43321793    0.24986624   -0.62520329
     atom   16 type  1   force =    -0.06170228    0.77688282   -1.53174176
     atom   17 type  2   force =    -0.28569997   -0.16495930  -32.30893358
     atom   18 type  2   force =    -0.00000009   -0.06994346  -32.20427961
     atom   19 type  2   force =     0.22273069    0.12859380  -31.91985185
     atom   20 type  2   force =    -0.06057769    0.03497726  -32.20429613
     atom   21 type  2   force =    -0.54053398   -1.26037150  -32.18825703
     atom   22 type  2   force =    -1.36177569    0.16207067  -32.18824107
     atom   23 type  2   force =    -0.22273811    0.12859436  -31.91985176
     atom   24 type  2   force =    -0.00000005   -0.25719718  -31.91985163
     atom   25 type  2   force =     0.54053315   -1.26034662  -32.18827264
     atom   26 type  2   force =    -0.82123744    1.09829148  -32.18824085
     atom   27 type  2   force =     0.06057085    0.03497058  -32.20427957
     atom   28 type  2   force =     0.28569967   -0.16495149  -32.30893359
     atom   29 type  2   force =     1.36175973    0.16206359  -32.18827287
     atom   30 type  2   force =     0.82124538    1.09829156  -32.18825694
     atom   31 type  2   force =     0.00000342    0.32990205  -32.30893377
     atom   32 type  2   force =     0.05775595    0.03333547   31.66804213
     atom   33 type  2   force =     0.00000023    0.01293964   31.64052243
     atom   34 type  2   force =     0.00666709    0.00384498   31.65377326
     atom   35 type  2   force =     0.01120036   -0.00646964   31.64055559
     atom   36 type  2   force =     0.09528447    0.19490860   31.69596990
     atom   37 type  2   force =     0.21644017   -0.01493440   31.69595338
     atom   38 type  2   force =    -0.00666660    0.00384498   31.65377322
     atom   39 type  2   force =     0.00000023   -0.00769714   31.65377301
     atom   40 type  2   force =    -0.09528358    0.19493029   31.69598676
     atom   41 type  2   force =     0.00001097   -0.00000642   31.62221615
     atom   42 type  2   force =     0.12115220   -0.17998007   31.69595285
     atom   43 type  2   force =    -0.01120724   -0.00646965   31.64052193
     atom   44 type  2   force =    -0.05775543    0.03334282   31.66802531
     atom   45 type  2   force =    -0.21645400   -0.01494207   31.69598683
     atom   46 type  2   force =    -0.12115176   -0.17998007   31.69596954
     atom   47 type  2   force =     0.00000394   -0.06669162   31.66804187
     The core correction contribution to forces
     atom    1 type  1   force =     0.00032546   -0.00021033    0.00009424
     atom    2 type  1   force =    -0.00001885    0.00038781    0.00009425
     atom    3 type  1   force =    -0.00000167    0.00002433   -0.00000366
     atom    4 type  1   force =     0.00001886   -0.00000926   -0.00000365
     atom    5 type  1   force =    -0.00000085   -0.00016883   -0.00039721
     atom    6 type  1   force =    -0.00034452   -0.00019878    0.00321059
     atom    7 type  1   force =    -0.00014587    0.00008571   -0.00039725
     atom    8 type  1   force =    -0.00002057   -0.00000922   -0.00000364
     atom    9 type  1   force =    -0.00032557   -0.00020868    0.00009419
     atom   10 type  1   force =     0.00034273   -0.00019716    0.00321053
     atom   11 type  1   force =     0.00000071    0.00040009    0.00321054
     atom   12 type  1   force =    -0.00034356   -0.00017494    0.00009413
     atom   13 type  1   force =     0.00000152    0.00000024    0.00009563
     atom   14 type  1   force =     0.00002032    0.00038783    0.00009420
     atom   15 type  1   force =     0.00014734    0.00008888   -0.00039729
     atom   16 type  1   force =     0.00034505   -0.00017338    0.00009414
     atom   17 type  2   force =    -0.00002757   -0.00001384    0.01458982
     atom   18 type  2   force =     0.00000008    0.00016127    0.01446444
     atom   19 type  2   force =     0.00005042    0.00003002    0.01462148
     atom   20 type  2   force =     0.00013950   -0.00008005    0.01446535
     atom   21 type  2   force =     0.00061287    0.00039871    0.01376082
     atom   22 type  2   force =     0.00065067    0.00033271    0.01375993
     atom   23 type  2   force =    -0.00004939    0.00003002    0.01462147
     atom   24 type  2   force =     0.00000008   -0.00005628    0.01462146
     atom   25 type  2   force =    -0.00061271    0.00039615    0.01376175
     atom   26 type  2   force =     0.00003745   -0.00072773    0.01375993
     atom   27 type  2   force =    -0.00013851   -0.00007917    0.01446443
     atom   28 type  2   force =     0.00002774   -0.00001468    0.01458981
     atom   29 type  2   force =    -0.00064880    0.00033356    0.01376177
     atom   30 type  2   force =    -0.00003813   -0.00072774    0.01376084
     atom   31 type  2   force =    -0.00000035    0.00003219    0.01458981
     atom   32 type  2   force =     0.00005238    0.00003235   -0.01440131
     atom   33 type  2   force =     0.00000010   -0.00018596   -0.01442936
     atom   34 type  2   force =    -0.00002165   -0.00001108   -0.01447322
     atom   35 type  2   force =    -0.00016117    0.00009448   -0.01443119
     atom   36 type  2   force =    -0.00012846   -0.00002042   -0.01442801
     atom   37 type  2   force =    -0.00008299   -0.00009975   -0.01442710
     atom   38 type  2   force =     0.00002186   -0.00001109   -0.01447322
     atom   39 type  2   force =     0.00000010    0.00002603   -0.01447321
     atom   40 type  2   force =     0.00012867   -0.00002294   -0.01442894
     atom   41 type  2   force =    -0.00000118    0.00000181   -0.01414744
     atom   42 type  2   force =     0.00004596    0.00012391   -0.01442711
     atom   43 type  2   force =     0.00016222    0.00009449   -0.01442937
     atom   44 type  2   force =    -0.00005220    0.00003152   -0.01440041
     atom   45 type  2   force =     0.00008488   -0.00009891   -0.01442895
     atom   46 type  2   force =    -0.00004577    0.00012392   -0.01442804
     atom   47 type  2   force =    -0.00000032   -0.00005926   -0.01440133
     The Hubbard contrib.    to forces
     atom    1 type  1   force =     0.00000000    0.00000000    0.00000000
     atom    2 type  1   force =     0.00000000    0.00000000    0.00000000
     atom    3 type  1   force =     0.00000000    0.00000000    0.00000000
     atom    4 type  1   force =     0.00000000    0.00000000    0.00000000
     atom    5 type  1   force =     0.00000000    0.00000000    0.00000000
     atom    6 type  1   force =     0.00000000    0.00000000    0.00000000
     atom    7 type  1   force =     0.00000000    0.00000000    0.00000000
     atom    8 type  1   force =     0.00000000    0.00000000    0.00000000
     atom    9 type  1   force =     0.00000000    0.00000000    0.00000000
     atom   10 type  1   force =     0.00000000    0.00000000    0.00000000
     atom   11 type  1   force =     0.00000000    0.00000000    0.00000000
     atom   12 type  1   force =     0.00000000    0.00000000    0.00000000
     atom   13 type  1   force =     0.00000000    0.00000000    0.00000000
     atom   14 type  1   force =     0.00000000    0.00000000    0.00000000
     atom   15 type  1   force =     0.00000000    0.00000000    0.00000000
     atom   16 type  1   force =     0.00000000    0.00000000    0.00000000
     atom   17 type  2   force =     0.00000000    0.00000000    0.00000000
     atom   18 type  2   force =     0.00000000    0.00000000    0.00000000
     atom   19 type  2   force =     0.00000000    0.00000000    0.00000000
     atom   20 type  2   force =     0.00000000    0.00000000    0.00000000
     atom   21 type  2   force =     0.00000000    0.00000000    0.00000000
     atom   22 type  2   force =     0.00000000    0.00000000    0.00000000
     atom   23 type  2   force =     0.00000000    0.00000000    0.00000000
     atom   24 type  2   force =     0.00000000    0.00000000    0.00000000
     atom   25 type  2   force =     0.00000000    0.00000000    0.00000000
     atom   26 type  2   force =     0.00000000    0.00000000    0.00000000
     atom   27 type  2   force =     0.00000000    0.00000000    0.00000000
     atom   28 type  2   force =     0.00000000    0.00000000    0.00000000
     atom   29 type  2   force =     0.00000000    0.00000000    0.00000000
     atom   30 type  2   force =     0.00000000    0.00000000    0.00000000
     atom   31 type  2   force =     0.00000000    0.00000000    0.00000000
     atom   32 type  2   force =     0.00000000    0.00000000    0.00000000
     atom   33 type  2   force =     0.00000000    0.00000000    0.00000000
     atom   34 type  2   force =     0.00000000    0.00000000    0.00000000
     atom   35 type  2   force =     0.00000000    0.00000000    0.00000000
     atom   36 type  2   force =     0.00000000    0.00000000    0.00000000
     atom   37 type  2   force =     0.00000000    0.00000000    0.00000000
     atom   38 type  2   force =     0.00000000    0.00000000    0.00000000
     atom   39 type  2   force =     0.00000000    0.00000000    0.00000000
     atom   40 type  2   force =     0.00000000    0.00000000    0.00000000
     atom   41 type  2   force =     0.00000000    0.00000000    0.00000000
     atom   42 type  2   force =     0.00000000    0.00000000    0.00000000
     atom   43 type  2   force =     0.00000000    0.00000000    0.00000000
     atom   44 type  2   force =     0.00000000    0.00000000    0.00000000
     atom   45 type  2   force =     0.00000000    0.00000000    0.00000000
     atom   46 type  2   force =     0.00000000    0.00000000    0.00000000
     atom   47 type  2   force =     0.00000000    0.00000000    0.00000000
     The SCF correction term to forces
     atom    1 type  1   force =    -0.00001478   -0.00001023    0.00000135
     atom    2 type  1   force =    -0.00001624   -0.00000769    0.00000135
     atom    3 type  1   force =    -0.00000000    0.00002837    0.00001177
     atom    4 type  1   force =     0.00002457   -0.00001419    0.00001177
     atom    5 type  1   force =    -0.00000000   -0.00001163   -0.00000884
     atom    6 type  1   force =     0.00001541    0.00000890   -0.00001405
     atom    7 type  1   force =    -0.00001007    0.00000582   -0.00000883
     atom    8 type  1   force =    -0.00002457   -0.00001418    0.00001177
     atom    9 type  1   force =     0.00001478   -0.00001022    0.00000135
     atom   10 type  1   force =    -0.00001541    0.00000890   -0.00001405
     atom   11 type  1   force =    -0.00000000   -0.00001779   -0.00001405
     atom   12 type  1   force =    -0.00000146    0.00001792    0.00000135
     atom   13 type  1   force =     0.00000000    0.00000000    0.00001320
     atom   14 type  1   force =     0.00001625   -0.00000769    0.00000135
     atom   15 type  1   force =     0.00001007    0.00000582   -0.00000883
     atom   16 type  1   force =     0.00000146    0.00001792    0.00000136
     atom   17 type  2   force =    -0.00001296   -0.00000749    0.00000077
     atom   18 type  2   force =     0.00000000    0.00000668    0.00000383
     atom   19 type  2   force =     0.00001287    0.00000743   -0.00000070
     atom   20 type  2   force =     0.00000578   -0.00000334    0.00000383
     atom   21 type  2   force =     0.00000107    0.00000540    0.00000704
     atom   22 type  2   force =     0.00000521   -0.00000177    0.00000703
     atom   23 type  2   force =    -0.00001287    0.00000743   -0.00000070
     atom   24 type  2   force =    -0.00000000   -0.00001486   -0.00000070
     atom   25 type  2   force =    -0.00000107    0.00000540    0.00000703
     atom   26 type  2   force =     0.00000414   -0.00000363    0.00000703
     atom   27 type  2   force =    -0.00000578   -0.00000334    0.00000383
     atom   28 type  2   force =     0.00001296   -0.00000749    0.00000077
     atom   29 type  2   force =    -0.00000521   -0.00000177    0.00000703
     atom   30 type  2   force =    -0.00000414   -0.00000363    0.00000703
     atom   31 type  2   force =     0.00000000    0.00001497    0.00000077
     atom   32 type  2   force =    -0.00000841   -0.00000486    0.00000036
     atom   33 type  2   force =     0.00000000    0.00000653   -0.00000130
     atom   34 type  2   force =     0.00000880    0.00000508    0.00000365
     atom   35 type  2   force =     0.00000565   -0.00000326   -0.00000130
     atom   36 type  2   force =     0.00000340    0.00001223   -0.00000608
     atom   37 type  2   force =     0.00001229   -0.00000317   -0.00000608
     atom   38 type  2   force =    -0.00000880    0.00000508    0.00000365
     atom   39 type  2   force =    -0.00000000   -0.00001016    0.00000365
     atom   40 type  2   force =    -0.00000340    0.00001223   -0.00000608
     atom   41 type  2   force =    -0.00000000    0.00000000   -0.00000786
     atom   42 type  2   force =     0.00000889   -0.00000906   -0.00000608
     atom   43 type  2   force =    -0.00000565   -0.00000326   -0.00000130
     atom   44 type  2   force =     0.00000841   -0.00000486    0.00000036
     atom   45 type  2   force =    -0.00001229   -0.00000317   -0.00000608
     atom   46 type  2   force =    -0.00000889   -0.00000906   -0.00000608
     atom   47 type  2   force =    -0.00000000    0.00000971    0.00000036

     Total force =     0.010463     Total SCF correction =     0.000106

     BFGS Geometry Optimization
     Energy error            =      1.1E-04 Ry
     Gradient error          =      2.5E-03 Ry/Bohr

     number of scf cycles    =   1
     number of bfgs steps    =   0

     energy             new  =   -2979.4269373812 Ry

     new trust radius        =       0.0034100080 bohr
     new conv_thr            =       0.0000000100 Ry


ATOMIC_POSITIONS (angstrom)
Mo               1.6014704861        0.9313096366       11.1766073521
Mo               0.0121163271        3.6841528211       11.1766073521
Mo              -1.5951590000        6.4409597385       11.1651311113
Mo              -3.1953341117        9.2125456308       11.1651311113
Mo               4.7854730000        0.9552572286       11.1475542059
Mo               3.2343058232        3.7092561137       11.1134342209
Mo               1.6248569410        6.4296068857       11.1475542059
Mo               0.0050171117        9.2125456308       11.1651311113
Mo               7.9694765139        0.9313106366       11.1766073521
Mo               6.3366401768        3.7092571137       11.1134342209
Mo               4.7854740000        6.3959587726       11.1134342209
Mo               3.1961198410        9.1990085423       11.1766073521
Mo              11.1661060000        0.9209640000       11.1813477664
Mo               9.5588316729        3.6841528211       11.1766073521
Mo               7.9460910590        6.4296088857       11.1475542059
Mo               6.3748281590        9.1990095423       11.1766073521
S                0.0069239527        1.8459285459       12.7394029500
S               -1.5951580000        4.6083036910       12.7333121825
S               -3.2091619140        7.3568377290       12.7104216053
S               -4.7824594992       10.1288721545       12.7333131825
S                3.2316352689        1.9082452477       12.7079063915
S                1.6732483233        4.6074499128       12.7079053915
S                0.0188469140        7.3568377290       12.7104216053
S               -1.5951580000       10.1523755418       12.7104216053
S                6.3393117311        1.9082422477       12.7079073915
S                3.2270860544        7.2987778395       12.7079053915
S                1.5921444992       10.1288731545       12.7333121825
S                9.5640230473        1.8459275459       12.7394029500
S                7.8977006767        4.6074509128       12.7079073915
S                6.3438599456        7.2987778395       12.7079063915
S                4.7854730000       10.1226169080       12.7394029500
S                0.0028077671        1.8435520651        9.6230259483
S               -1.5951580000        4.5929264951        9.6185091838
S               -3.1962615220        7.3642863513        9.6063254384
S               -4.7957765414       10.1365617524        9.6185071838
S                3.1783385690        1.8640302960        9.5862997691
S                1.6083087021        4.5834010925        9.5863007691
S                0.0059455220        7.3642863513        9.6063254384
S               -1.5951580000       10.1374782975        9.6063254384
S                6.3926084310        1.8640272960        9.5862987691
S                4.7854720000        4.6048250000        9.5472086183
S                3.2154441331        7.3670416115        9.5863007691
S                1.6054615414       10.1365617524        9.6185091838
S                9.5681392329        1.8435510651        9.6230269483
S                7.9626402979        4.5834020925        9.5862987691
S                6.3555028669        7.3670416115        9.5862997691
S                4.7854730000       10.1273708698        9.6230259483



     Writing config-only to output data dir /home/nihal/Desktop/Otptf/Trial_4.save/ :
     XML data file
     NEW-OLD atomic charge density approx. for the potential

     negative rho (up, down):  1.432E-03 1.432E-03
     Generating pointlists ...

     total cpu time spent up to now is     5090.1 secs

     Self-consistent Calculation

     iteration #  1     ecut=    65.00 Ry     beta= 0.30
     Davidson diagonalization with overlap

---- Real-time Memory Report at c_bands before calling an iterative solver
          2757 MiB given to the printing process from OS
             0 MiB allocation reported by mallinfo(arena+hblkhd)
         14319 MiB available memory on the node where the printing process lives
------------------
     ethr =  1.00E-06,  avg # of iterations =  3.0

     Threshold (ethr) on eigenvalues was too large:
     Diagonalizing with lowered threshold

     Davidson diagonalization with overlap

---- Real-time Memory Report at c_bands before calling an iterative solver
          2757 MiB given to the printing process from OS
             0 MiB allocation reported by mallinfo(arena+hblkhd)
         14790 MiB available memory on the node where the printing process lives
------------------
     ethr =  1.76E-09,  avg # of iterations =  4.6

     negative rho (up, down):  1.432E-03 1.432E-03

     total cpu time spent up to now is     5680.9 secs

     total energy              =   -2979.42701712 Ry
     estimated scf accuracy    <       0.00000966 Ry

     total magnetization       =     0.00 Bohr mag/cell
     absolute magnetization    =     0.00 Bohr mag/cell

     iteration #  2     ecut=    65.00 Ry     beta= 0.30
     Davidson diagonalization with overlap

---- Real-time Memory Report at c_bands before calling an iterative solver
          2757 MiB given to the printing process from OS
             0 MiB allocation reported by mallinfo(arena+hblkhd)
         13901 MiB available memory on the node where the printing process lives
------------------
     ethr =  2.36E-09,  avg # of iterations =  2.0

     negative rho (up, down):  1.432E-03 1.432E-03

     total cpu time spent up to now is     5887.8 secs

     total energy              =   -2979.42701719 Ry
     estimated scf accuracy    <       0.00000602 Ry

     total magnetization       =     0.00 Bohr mag/cell
     absolute magnetization    =     0.00 Bohr mag/cell

     iteration #  3     ecut=    65.00 Ry     beta= 0.30
     Davidson diagonalization with overlap

---- Real-time Memory Report at c_bands before calling an iterative solver
          2757 MiB given to the printing process from OS
             0 MiB allocation reported by mallinfo(arena+hblkhd)
         14122 MiB available memory on the node where the printing process lives
------------------
     ethr =  1.47E-09,  avg # of iterations =  2.1

     negative rho (up, down):  1.432E-03 1.432E-03

     total cpu time spent up to now is     6075.5 secs

     total energy              =   -2979.42701768 Ry
     estimated scf accuracy    <       0.00000458 Ry

     total magnetization       =     0.00 Bohr mag/cell
     absolute magnetization    =     0.00 Bohr mag/cell

     iteration #  4     ecut=    65.00 Ry     beta= 0.30
     Davidson diagonalization with overlap

---- Real-time Memory Report at c_bands before calling an iterative solver
          2757 MiB given to the printing process from OS
             0 MiB allocation reported by mallinfo(arena+hblkhd)
         14063 MiB available memory on the node where the printing process lives
------------------
     ethr =  1.12E-09,  avg # of iterations =  1.1

     negative rho (up, down):  1.432E-03 1.432E-03

     total cpu time spent up to now is     6249.1 secs

     total energy              =   -2979.42701796 Ry
     estimated scf accuracy    <       0.00000053 Ry

     total magnetization       =     0.00 Bohr mag/cell
     absolute magnetization    =     0.00 Bohr mag/cell

     iteration #  5     ecut=    65.00 Ry     beta= 0.30
     Davidson diagonalization with overlap

---- Real-time Memory Report at c_bands before calling an iterative solver
          2757 MiB given to the printing process from OS
             0 MiB allocation reported by mallinfo(arena+hblkhd)
         13710 MiB available memory on the node where the printing process lives
------------------
     ethr =  1.28E-10,  avg # of iterations =  2.6

     negative rho (up, down):  1.432E-03 1.432E-03

     total cpu time spent up to now is     6449.3 secs

     total energy              =   -2979.42701801 Ry
     estimated scf accuracy    <       0.00000036 Ry

     total magnetization       =     0.00 Bohr mag/cell
     absolute magnetization    =     0.00 Bohr mag/cell

     iteration #  6     ecut=    65.00 Ry     beta= 0.30
     Davidson diagonalization with overlap

---- Real-time Memory Report at c_bands before calling an iterative solver
          2757 MiB given to the printing process from OS
             0 MiB allocation reported by mallinfo(arena+hblkhd)
         13620 MiB available memory on the node where the printing process lives
------------------
     ethr =  8.72E-11,  avg # of iterations =  1.3

     negative rho (up, down):  1.432E-03 1.432E-03

     total cpu time spent up to now is     6623.4 secs

     total energy              =   -2979.42701804 Ry
     estimated scf accuracy    <       0.00000003 Ry

     total magnetization       =     0.00 Bohr mag/cell
     absolute magnetization    =     0.00 Bohr mag/cell

     iteration #  7     ecut=    65.00 Ry     beta= 0.30
     Davidson diagonalization with overlap

---- Real-time Memory Report at c_bands before calling an iterative solver
          2757 MiB given to the printing process from OS
             0 MiB allocation reported by mallinfo(arena+hblkhd)
         13800 MiB available memory on the node where the printing process lives
------------------
     ethr =  8.08E-12,  avg # of iterations =  3.0

     negative rho (up, down):  1.432E-03 1.432E-03

     total cpu time spent up to now is     6848.7 secs

     total energy              =   -2979.42701805 Ry
     estimated scf accuracy    <       0.00000002 Ry

     total magnetization       =     0.00 Bohr mag/cell
     absolute magnetization    =     0.00 Bohr mag/cell

     iteration #  8     ecut=    65.00 Ry     beta= 0.30
     Davidson diagonalization with overlap

---- Real-time Memory Report at c_bands before calling an iterative solver
          2757 MiB given to the printing process from OS
             0 MiB allocation reported by mallinfo(arena+hblkhd)
         13848 MiB available memory on the node where the printing process lives
------------------
     ethr =  4.82E-12,  avg # of iterations =  2.0

     negative rho (up, down):  1.432E-03 1.432E-03

     Magnetic moment per site  (integrated on atomic sphere of radius R)
     atom   1 (R=0.077)  charge= 10.6270  magn=  0.0000
     atom   2 (R=0.077)  charge= 10.6270  magn=  0.0000
     atom   3 (R=0.077)  charge= 10.6262  magn=  0.0000
     atom   4 (R=0.077)  charge= 10.6262  magn=  0.0000
     atom   5 (R=0.077)  charge= 10.6296  magn= -0.0000
     atom   6 (R=0.077)  charge= 10.6193  magn=  0.0000
     atom   7 (R=0.077)  charge= 10.6296  magn= -0.0000
     atom   8 (R=0.077)  charge= 10.6262  magn=  0.0000
     atom   9 (R=0.077)  charge= 10.6270  magn=  0.0000
     atom  10 (R=0.077)  charge= 10.6193  magn=  0.0000
     atom  11 (R=0.077)  charge= 10.6193  magn=  0.0000
     atom  12 (R=0.077)  charge= 10.6270  magn=  0.0000
     atom  13 (R=0.077)  charge= 10.6279  magn= -0.0000
     atom  14 (R=0.077)  charge= 10.6270  magn=  0.0000
     atom  15 (R=0.077)  charge= 10.6296  magn= -0.0000
     atom  16 (R=0.077)  charge= 10.6270  magn=  0.0000
     atom  17 (R=0.077)  charge=  4.0461  magn= -0.0000
     atom  18 (R=0.077)  charge=  4.0438  magn= -0.0000
     atom  19 (R=0.077)  charge=  4.0447  magn= -0.0000
     atom  20 (R=0.077)  charge=  4.0438  magn= -0.0000
     atom  21 (R=0.077)  charge=  4.0464  magn= -0.0000
     atom  22 (R=0.077)  charge=  4.0464  magn= -0.0000
     atom  23 (R=0.077)  charge=  4.0447  magn= -0.0000
     atom  24 (R=0.077)  charge=  4.0447  magn= -0.0000
     atom  25 (R=0.077)  charge=  4.0464  magn= -0.0000
     atom  26 (R=0.077)  charge=  4.0464  magn= -0.0000
     atom  27 (R=0.077)  charge=  4.0438  magn= -0.0000
     atom  28 (R=0.077)  charge=  4.0461  magn= -0.0000
     atom  29 (R=0.077)  charge=  4.0464  magn= -0.0000
     atom  30 (R=0.077)  charge=  4.0464  magn= -0.0000
     atom  31 (R=0.077)  charge=  4.0461  magn= -0.0000
     atom  32 (R=0.077)  charge=  4.0492  magn= -0.0000
     atom  33 (R=0.077)  charge=  4.0476  magn= -0.0000
     atom  34 (R=0.077)  charge=  4.0455  magn= -0.0000
     atom  35 (R=0.077)  charge=  4.0476  magn= -0.0000
     atom  36 (R=0.077)  charge=  4.0439  magn= -0.0000
     atom  37 (R=0.077)  charge=  4.0439  magn= -0.0000
     atom  38 (R=0.077)  charge=  4.0455  magn= -0.0000
     atom  39 (R=0.077)  charge=  4.0455  magn= -0.0000
     atom  40 (R=0.077)  charge=  4.0439  magn= -0.0000
     atom  41 (R=0.077)  charge=  4.0727  magn= -0.0000
     atom  42 (R=0.077)  charge=  4.0439  magn= -0.0000
     atom  43 (R=0.077)  charge=  4.0476  magn= -0.0000
     atom  44 (R=0.077)  charge=  4.0492  magn= -0.0000
     atom  45 (R=0.077)  charge=  4.0439  magn= -0.0000
     atom  46 (R=0.077)  charge=  4.0439  magn= -0.0000
     atom  47 (R=0.077)  charge=  4.0492  magn= -0.0000

     total cpu time spent up to now is     7029.3 secs

     End of self-consistent calculation

 ------ SPIN UP ------------


          k = 0.0000 0.0000 0.0000 (126355 PWs)   bands (ev):

   -60.3634 -60.3561 -60.3560 -60.3450 -60.3380 -60.3380 -60.3332 -60.3095
   -60.3094 -60.3079 -60.2998 -60.2998 -60.2963 -60.2926 -60.2763 -60.2762
   -34.6618 -34.6618 -34.6172 -34.5969 -34.5897 -34.5897 -34.5648 -34.5648
   -34.5259 -34.4865 -34.4757 -34.4747 -34.4747 -34.4727 -34.4727 -34.4526
   -34.4526 -34.4506 -34.4478 -34.4388 -34.4355 -34.4322 -34.4322 -34.4292
   -34.4292 -34.4052 -34.4051 -34.4008 -34.4007 -34.3974 -34.3874 -34.3866
   -34.3865 -34.3856 -34.3787 -34.3774 -34.3675 -34.3674 -34.3574 -34.3573
   -34.3377 -34.3376 -34.3346 -34.3062 -34.2935 -34.2935 -34.2150 -34.2149
   -13.4640 -12.7119 -12.7118 -12.6823 -12.6740 -12.6740 -12.5536 -12.1688
   -11.8960 -11.8959 -11.8457 -11.8457 -11.8452 -11.8110 -11.7198 -11.7197
   -11.7120 -11.7119 -11.6943 -11.6753 -11.6752 -11.6685 -11.5595 -11.4800
   -11.4800 -11.4565 -11.4565 -11.4392 -11.4392 -11.4342 -11.4270  -5.2006
    -5.0989  -5.0989  -4.9852  -4.5268  -4.5267  -4.5237  -4.4973  -4.4757
    -4.4757  -4.4237  -4.4112  -4.4112  -4.3897  -4.3896  -4.3656  -4.3119
    -4.3119  -4.2846  -4.2649  -4.2362  -4.2362  -4.1435  -3.9411  -3.9411
    -3.4824  -3.4824  -3.4382  -3.3213  -3.2630  -3.2493  -3.2493  -3.1802
    -3.1802  -3.0883  -3.0512  -3.0414  -3.0414  -3.0309  -3.0309  -2.9955
    -2.9727  -2.9727  -2.8500  -2.8500  -2.7256  -2.6716  -2.6715  -2.6444
    -2.6129  -2.6129  -2.5867  -2.4479  -2.4461  -2.4461  -2.3199  -2.3198
    -2.2995  -2.2431  -2.1592  -2.1591  -2.0294  -2.0294  -1.9390  -1.9211
    -1.9211  -1.9052  -1.6048  -1.6048  -1.2948  -1.2922  -1.2921  -1.2911
    -1.2727  -1.2727  -1.1802  -1.1540  -1.1043  -1.1043  -1.0596  -1.0595
    -1.0344  -1.0021  -1.0021  -0.9157  -0.8487  -0.8487  -0.7944  -0.7385
    -0.7385  -0.5409  -0.5409  -0.4576  -0.2474  -0.1709  -0.1708  -0.1386
    -0.1238  -0.1192  -0.1192  -0.0472  -0.0472  -0.0038  -0.0038   0.0268
     0.0359   0.0785   0.0785   0.4308   0.6820   1.7439   1.7440   2.6679
     2.6833   2.6922   2.6922   2.7252   2.7253   2.7383   2.7470   2.7471
     2.7716   2.7716   2.8087   2.8157   2.8157   2.8636   2.9057   2.9230
     2.9230   2.9782   3.1570   3.1570   3.2739   3.2944   3.2944   3.3251
     3.3251   3.3437   3.3538   3.3538   3.3877   3.4190   3.4190   3.4536
     3.4536   3.4659   3.5099   3.5099   3.5979   3.6603

     occupation numbers 
     1.0000   1.0000   1.0000   1.0000   1.0000   1.0000   1.0000   1.0000
     1.0000   1.0000   1.0000   1.0000   1.0000   1.0000   1.0000   1.0000
     1.0000   1.0000   1.0000   1.0000   1.0000   1.0000   1.0000   1.0000
     1.0000   1.0000   1.0000   1.0000   1.0000   1.0000   1.0000   1.0000
     1.0000   1.0000   1.0000   1.0000   1.0000   1.0000   1.0000   1.0000
     1.0000   1.0000   1.0000   1.0000   1.0000   1.0000   1.0000   1.0000
     1.0000   1.0000   1.0000   1.0000   1.0000   1.0000   1.0000   1.0000
     1.0000   1.0000   1.0000   1.0000   1.0000   1.0000   1.0000   1.0000
     1.0000   1.0000   1.0000   1.0000   1.0000   1.0000   1.0000   1.0000
     1.0000   1.0000   1.0000   1.0000   1.0000   1.0000   1.0000   1.0000
     1.0000   1.0000   1.0000   1.0000   1.0000   1.0000   1.0000   1.0000
     1.0000   1.0000   1.0000   1.0000   1.0000   1.0000   1.0000   1.0000
     1.0000   1.0000   1.0000   1.0000   1.0000   1.0000   1.0000   1.0000
     1.0000   1.0000   1.0000   1.0000   1.0000   1.0000   1.0000   1.0000
     1.0000   1.0000   1.0000   1.0000   1.0000   1.0000   1.0000   1.0000
     1.0000   1.0000   1.0000   1.0000   1.0000   1.0000   1.0000   1.0000
     1.0000   1.0000   1.0000   1.0000   1.0000   1.0000   1.0000   1.0000
     1.0000   1.0000   1.0000   1.0000   1.0000   1.0000   1.0000   1.0000
     1.0000   1.0000   1.0000   1.0000   1.0000   1.0000   1.0000   1.0000
     1.0000   1.0000   1.0000   1.0000   1.0000   1.0000   1.0000   1.0000
     1.0000   1.0000   1.0000   1.0000   1.0000   1.0000   1.0000   1.0000
     1.0000   1.0000   1.0000   1.0000   1.0000   1.0000   1.0000   1.0000
     1.0000   1.0000   1.0000   1.0000   1.0000   1.0000   1.0000   1.0000
     1.0000   1.0000   1.0000   1.0000   1.0000   1.0000   1.0000   1.0000
     1.0000   1.0000   1.0000   1.0000   1.0000   1.0000   1.0000   1.0000
     1.0000   1.0000   1.0000   1.0000   0.9992   0.0002   0.0002   0.0000
     0.0000   0.0000   0.0000   0.0000   0.0000   0.0000   0.0000   0.0000
     0.0000   0.0000   0.0000   0.0000   0.0000   0.0000   0.0000   0.0000
     0.0000   0.0000   0.0000   0.0000   0.0000   0.0000   0.0000   0.0000
     0.0000   0.0000   0.0000   0.0000   0.0000   0.0000   0.0000   0.0000
     0.0000   0.0000   0.0000   0.0000   0.0000   0.0000

          k = 0.0000 0.1925 0.0000 (126305 PWs)   bands (ev):

   -60.3632 -60.3564 -60.3560 -60.3448 -60.3382 -60.3380 -60.3330 -60.3094
   -60.3094 -60.3079 -60.3000 -60.2999 -60.2962 -60.2925 -60.2763 -60.2762
   -34.6590 -34.6570 -34.6138 -34.5995 -34.5915 -34.5890 -34.5694 -34.5617
   -34.5325 -34.5086 -34.4918 -34.4836 -34.4750 -34.4682 -34.4564 -34.4542
   -34.4529 -34.4441 -34.4440 -34.4395 -34.4352 -34.4289 -34.4279 -34.4241
   -34.4211 -34.4055 -34.4054 -34.4037 -34.3972 -34.3951 -34.3877 -34.3876
   -34.3852 -34.3789 -34.3782 -34.3741 -34.3686 -34.3675 -34.3574 -34.3572
   -34.3418 -34.3403 -34.3343 -34.3065 -34.2971 -34.2936 -34.2172 -34.2152
   -13.4393 -12.8942 -12.7929 -12.7475 -12.5600 -12.5123 -12.4263 -12.1590
   -11.9510 -11.9184 -11.8860 -11.8635 -11.8451 -11.8115 -11.7850 -11.7616
   -11.7171 -11.7087 -11.6809 -11.6782 -11.6275 -11.5811 -11.5470 -11.5186
   -11.4999 -11.4817 -11.4671 -11.4445 -11.4374 -11.4029 -11.3838  -5.1633
    -5.0655  -5.0649  -4.9557  -4.5837  -4.5512  -4.5510  -4.5353  -4.5188
    -4.4893  -4.4685  -4.4414  -4.4290  -4.4205  -4.4083  -4.3902  -4.3888
    -4.3010  -4.2686  -4.2514  -4.1646  -4.0945  -4.0853  -3.9103  -3.8886
    -3.4691  -3.4689  -3.4195  -3.3342  -3.3054  -3.2764  -3.2741  -3.1932
    -3.1615  -3.1590  -3.1303  -3.1083  -3.0991  -3.0838  -3.0763  -3.0095
    -3.0042  -2.9008  -2.7598  -2.7523  -2.6951  -2.6757  -2.6447  -2.6424
    -2.5919  -2.5876  -2.5608  -2.5559  -2.5426  -2.3943  -2.2972  -2.2920
    -2.1614  -2.1496  -2.1123  -2.1011  -2.0642  -2.0138  -2.0003  -1.9706
    -1.9265  -1.8006  -1.6374  -1.6006  -1.4376  -1.4121  -1.3189  -1.2939
    -1.2468  -1.2400  -1.2217  -1.2075  -1.1506  -1.1435  -1.0679  -1.0622
    -1.0196  -0.9632  -0.9113  -0.9038  -0.8224  -0.7990  -0.7505  -0.6727
    -0.6616  -0.6120  -0.6032  -0.5144  -0.3310  -0.2629  -0.2291  -0.1593
    -0.1307  -0.1293  -0.0511  -0.0390  -0.0303   0.0140   0.0154   0.0341
     0.1127   0.1872   0.1900   0.4355   0.6656   1.7439   1.7490   2.5682
     2.5824   2.6815   2.6892   2.7108   2.7195   2.7224   2.7306   2.7573
     2.7631   2.7860   2.7940   2.8277   2.8315   2.8665   2.8907   2.9619
     2.9722   3.0070   3.1096   3.1155   3.1879   3.2224   3.2414   3.2529
     3.2834   3.2889   3.3210   3.3438   3.3694   3.3804   3.4209   3.4377
     3.5159   3.5328   3.6079   3.6263   3.6436   3.6466

     occupation numbers 
     1.0000   1.0000   1.0000   1.0000   1.0000   1.0000   1.0000   1.0000
     1.0000   1.0000   1.0000   1.0000   1.0000   1.0000   1.0000   1.0000
     1.0000   1.0000   1.0000   1.0000   1.0000   1.0000   1.0000   1.0000
     1.0000   1.0000   1.0000   1.0000   1.0000   1.0000   1.0000   1.0000
     1.0000   1.0000   1.0000   1.0000   1.0000   1.0000   1.0000   1.0000
     1.0000   1.0000   1.0000   1.0000   1.0000   1.0000   1.0000   1.0000
     1.0000   1.0000   1.0000   1.0000   1.0000   1.0000   1.0000   1.0000
     1.0000   1.0000   1.0000   1.0000   1.0000   1.0000   1.0000   1.0000
     1.0000   1.0000   1.0000   1.0000   1.0000   1.0000   1.0000   1.0000
     1.0000   1.0000   1.0000   1.0000   1.0000   1.0000   1.0000   1.0000
     1.0000   1.0000   1.0000   1.0000   1.0000   1.0000   1.0000   1.0000
     1.0000   1.0000   1.0000   1.0000   1.0000   1.0000   1.0000   1.0000
     1.0000   1.0000   1.0000   1.0000   1.0000   1.0000   1.0000   1.0000
     1.0000   1.0000   1.0000   1.0000   1.0000   1.0000   1.0000   1.0000
     1.0000   1.0000   1.0000   1.0000   1.0000   1.0000   1.0000   1.0000
     1.0000   1.0000   1.0000   1.0000   1.0000   1.0000   1.0000   1.0000
     1.0000   1.0000   1.0000   1.0000   1.0000   1.0000   1.0000   1.0000
     1.0000   1.0000   1.0000   1.0000   1.0000   1.0000   1.0000   1.0000
     1.0000   1.0000   1.0000   1.0000   1.0000   1.0000   1.0000   1.0000
     1.0000   1.0000   1.0000   1.0000   1.0000   1.0000   1.0000   1.0000
     1.0000   1.0000   1.0000   1.0000   1.0000   1.0000   1.0000   1.0000
     1.0000   1.0000   1.0000   1.0000   1.0000   1.0000   1.0000   1.0000
     1.0000   1.0000   1.0000   1.0000   1.0000   1.0000   1.0000   1.0000
     1.0000   1.0000   1.0000   1.0000   1.0000   1.0000   1.0000   1.0000
     1.0000   1.0000   1.0000   1.0000   1.0000   1.0000   1.0000   1.0000
     1.0000   1.0000   1.0000   1.0000   0.9994   0.0002   0.0002   0.0000
     0.0000   0.0000   0.0000   0.0000   0.0000   0.0000   0.0000   0.0000
     0.0000   0.0000   0.0000   0.0000   0.0000   0.0000   0.0000   0.0000
     0.0000   0.0000   0.0000   0.0000   0.0000   0.0000   0.0000   0.0000
     0.0000   0.0000   0.0000   0.0000   0.0000   0.0000   0.0000   0.0000
     0.0000   0.0000   0.0000   0.0000   0.0000   0.0000

          k = 0.0000 0.3849 0.0000 (126328 PWs)   bands (ev):

   -60.3627 -60.3572 -60.3561 -60.3445 -60.3386 -60.3379 -60.3327 -60.3093
   -60.3092 -60.3078 -60.3004 -60.3002 -60.2960 -60.2924 -60.2763 -60.2762
   -34.6518 -34.6435 -34.6102 -34.6064 -34.5952 -34.5907 -34.5715 -34.5540
   -34.5489 -34.5338 -34.5102 -34.4853 -34.4760 -34.4731 -34.4591 -34.4565
   -34.4533 -34.4419 -34.4337 -34.4317 -34.4307 -34.4274 -34.4256 -34.4121
   -34.4085 -34.4058 -34.4043 -34.3972 -34.3917 -34.3911 -34.3890 -34.3856
   -34.3830 -34.3791 -34.3771 -34.3767 -34.3667 -34.3578 -34.3572 -34.3532
   -34.3502 -34.3458 -34.3359 -34.3076 -34.3072 -34.2936 -34.2219 -34.2158
   -13.3666 -13.0846 -12.8529 -12.7989 -12.4028 -12.3669 -12.2147 -12.1307
   -12.0448 -12.0386 -11.9908 -11.9358 -11.8950 -11.8248 -11.7526 -11.7370
   -11.7056 -11.6827 -11.6825 -11.6683 -11.6326 -11.5936 -11.5619 -11.5213
   -11.5028 -11.4763 -11.4642 -11.4448 -11.4377 -11.3729 -11.3475  -5.0582
    -4.9716  -4.9684  -4.8709  -4.7239  -4.6784  -4.6609  -4.6156  -4.6069
    -4.5754  -4.5103  -4.4988  -4.4370  -4.4252  -4.4086  -4.3647  -4.3531
    -4.3087  -4.2484  -4.2279  -4.1710  -4.0299  -3.9351  -3.7428  -3.7115
    -3.5318  -3.4306  -3.4283  -3.3762  -3.3300  -3.3098  -3.3071  -3.2878
    -3.2617  -3.2440  -3.2392  -3.2016  -3.1557  -3.1516  -3.1264  -3.0073
    -2.9386  -2.7985  -2.6970  -2.6817  -2.6518  -2.6380  -2.6278  -2.6273
    -2.5983  -2.5588  -2.5419  -2.4838  -2.4388  -2.4099  -2.3824  -2.3248
    -2.3084  -2.2373  -2.1081  -2.0835  -2.0148  -1.9366  -1.8525  -1.7602
    -1.7471  -1.6832  -1.6819  -1.5795  -1.5750  -1.4687  -1.3833  -1.3662
    -1.3189  -1.3097  -1.2282  -1.2216  -1.1714  -1.1628  -1.1359  -1.1243
    -1.0148  -1.0062  -0.9507  -0.9092  -0.8165  -0.7876  -0.7480  -0.6808
    -0.6164  -0.6054  -0.5014  -0.4637  -0.3851  -0.3124  -0.2713  -0.2363
    -0.2018  -0.1938  -0.0129   0.0064   0.0177   0.0402   0.0512   0.0638
     0.2922   0.3227   0.3284   0.4507   0.6164   1.7438   1.7623   2.4250
     2.4551   2.6059   2.6337   2.6566   2.6886   2.6961   2.7205   2.7388
     2.7572   2.7736   2.8033   2.8460   2.8732   2.9003   2.9313   2.9934
     3.0088   3.0449   3.0630   3.0954   3.1034   3.1215   3.1484   3.1748
     3.2017   3.2545   3.2716   3.3020   3.3428   3.3518   3.3714   3.4668
     3.5111   3.5342   3.5797   3.6566   3.7376   3.7432

     occupation numbers 
     1.0000   1.0000   1.0000   1.0000   1.0000   1.0000   1.0000   1.0000
     1.0000   1.0000   1.0000   1.0000   1.0000   1.0000   1.0000   1.0000
     1.0000   1.0000   1.0000   1.0000   1.0000   1.0000   1.0000   1.0000
     1.0000   1.0000   1.0000   1.0000   1.0000   1.0000   1.0000   1.0000
     1.0000   1.0000   1.0000   1.0000   1.0000   1.0000   1.0000   1.0000
     1.0000   1.0000   1.0000   1.0000   1.0000   1.0000   1.0000   1.0000
     1.0000   1.0000   1.0000   1.0000   1.0000   1.0000   1.0000   1.0000
     1.0000   1.0000   1.0000   1.0000   1.0000   1.0000   1.0000   1.0000
     1.0000   1.0000   1.0000   1.0000   1.0000   1.0000   1.0000   1.0000
     1.0000   1.0000   1.0000   1.0000   1.0000   1.0000   1.0000   1.0000
     1.0000   1.0000   1.0000   1.0000   1.0000   1.0000   1.0000   1.0000
     1.0000   1.0000   1.0000   1.0000   1.0000   1.0000   1.0000   1.0000
     1.0000   1.0000   1.0000   1.0000   1.0000   1.0000   1.0000   1.0000
     1.0000   1.0000   1.0000   1.0000   1.0000   1.0000   1.0000   1.0000
     1.0000   1.0000   1.0000   1.0000   1.0000   1.0000   1.0000   1.0000
     1.0000   1.0000   1.0000   1.0000   1.0000   1.0000   1.0000   1.0000
     1.0000   1.0000   1.0000   1.0000   1.0000   1.0000   1.0000   1.0000
     1.0000   1.0000   1.0000   1.0000   1.0000   1.0000   1.0000   1.0000
     1.0000   1.0000   1.0000   1.0000   1.0000   1.0000   1.0000   1.0000
     1.0000   1.0000   1.0000   1.0000   1.0000   1.0000   1.0000   1.0000
     1.0000   1.0000   1.0000   1.0000   1.0000   1.0000   1.0000   1.0000
     1.0000   1.0000   1.0000   1.0000   1.0000   1.0000   1.0000   1.0000
     1.0000   1.0000   1.0000   1.0000   1.0000   1.0000   1.0000   1.0000
     1.0000   1.0000   1.0000   1.0000   1.0000   1.0000   1.0000   1.0000
     1.0000   1.0000   1.0000   1.0000   1.0000   1.0000   1.0000   1.0000
     1.0000   1.0000   1.0000   1.0000   0.9997   0.0002   0.0002   0.0000
     0.0000   0.0000   0.0000   0.0000   0.0000   0.0000   0.0000   0.0000
     0.0000   0.0000   0.0000   0.0000   0.0000   0.0000   0.0000   0.0000
     0.0000   0.0000   0.0000   0.0000   0.0000   0.0000   0.0000   0.0000
     0.0000   0.0000   0.0000   0.0000   0.0000   0.0000   0.0000   0.0000
     0.0000   0.0000   0.0000   0.0000   0.0000   0.0000

          k = 0.0000-0.5774 0.0000 (126288 PWs)   bands (ev):

   -60.3623 -60.3576 -60.3561 -60.3444 -60.3388 -60.3379 -60.3326 -60.3093
   -60.3092 -60.3077 -60.3006 -60.3003 -60.2958 -60.2924 -60.2763 -60.2762
   -34.6464 -34.6296 -34.6176 -34.6142 -34.5937 -34.5897 -34.5694 -34.5582
   -34.5480 -34.5459 -34.5199 -34.4816 -34.4801 -34.4718 -34.4660 -34.4600
   -34.4535 -34.4426 -34.4328 -34.4272 -34.4249 -34.4222 -34.4215 -34.4076
   -34.4058 -34.4053 -34.3986 -34.3970 -34.3962 -34.3908 -34.3898 -34.3895
   -34.3816 -34.3788 -34.3692 -34.3680 -34.3675 -34.3588 -34.3576 -34.3558
   -34.3555 -34.3383 -34.3370 -34.3165 -34.3085 -34.2934 -34.2244 -34.2161
   -13.2682 -13.2232 -12.8734 -12.8172 -12.2448 -12.2298 -12.2245 -12.1605
   -12.0967 -12.0761 -12.0189 -11.9519 -11.9440 -11.8996 -11.7090 -11.7053
   -11.6979 -11.6772 -11.6670 -11.6644 -11.6572 -11.6019 -11.5961 -11.5522
   -11.4817 -11.4613 -11.4574 -11.4417 -11.4378 -11.3618 -11.3346  -4.9261
    -4.8769  -4.8666  -4.8472  -4.7911  -4.7878  -4.7600  -4.7117  -4.6580
    -4.6571  -4.4955  -4.4931  -4.4493  -4.4401  -4.4149  -4.3400  -4.3302
    -4.2998  -4.2453  -4.2297  -4.1470  -4.0337  -3.8099  -3.7352  -3.5679
    -3.5063  -3.4370  -3.4349  -3.3820  -3.3722  -3.3639  -3.3338  -3.3314
    -3.3055  -3.2943  -3.2814  -3.2405  -3.1971  -3.1745  -3.1317  -2.9903
    -2.9606  -2.6688  -2.6613  -2.6331  -2.6330  -2.5995  -2.5897  -2.5704
    -2.5662  -2.5561  -2.5483  -2.5259  -2.5191  -2.4324  -2.4264  -2.3917
    -2.3573  -2.2296  -2.1069  -2.0370  -2.0224  -1.9273  -1.8547  -1.8296
    -1.6925  -1.5101  -1.4975  -1.4371  -1.4067  -1.3997  -1.3981  -1.3745
    -1.3593  -1.3516  -1.3279  -1.3147  -1.2903  -1.2160  -1.1911  -1.1717
    -1.1647  -1.1620  -0.9599  -0.9328  -0.8063  -0.7231  -0.7025  -0.6550
    -0.6354  -0.5961  -0.4404  -0.4125  -0.3564  -0.3186  -0.2962  -0.2715
    -0.2529  -0.2212  -0.0007   0.0321   0.0337   0.0494   0.0686   0.0770
     0.3687   0.3814   0.4001   0.4704   0.5670   1.7432   1.7709   2.3608
     2.4001   2.5677   2.5974   2.6105   2.6591   2.6842   2.7184   2.7397
     2.7592   2.7697   2.8052   2.8389   2.8863   2.9936   3.0036   3.0194
     3.0245   3.0398   3.0472   3.0566   3.0614   3.0746   3.0770   3.1320
     3.1448   3.2055   3.2989   3.3020   3.3257   3.3271   3.3455   3.4980
     3.5166   3.5314   3.6223   3.6621   3.6814   3.7503

     occupation numbers 
     1.0000   1.0000   1.0000   1.0000   1.0000   1.0000   1.0000   1.0000
     1.0000   1.0000   1.0000   1.0000   1.0000   1.0000   1.0000   1.0000
     1.0000   1.0000   1.0000   1.0000   1.0000   1.0000   1.0000   1.0000
     1.0000   1.0000   1.0000   1.0000   1.0000   1.0000   1.0000   1.0000
     1.0000   1.0000   1.0000   1.0000   1.0000   1.0000   1.0000   1.0000
     1.0000   1.0000   1.0000   1.0000   1.0000   1.0000   1.0000   1.0000
     1.0000   1.0000   1.0000   1.0000   1.0000   1.0000   1.0000   1.0000
     1.0000   1.0000   1.0000   1.0000   1.0000   1.0000   1.0000   1.0000
     1.0000   1.0000   1.0000   1.0000   1.0000   1.0000   1.0000   1.0000
     1.0000   1.0000   1.0000   1.0000   1.0000   1.0000   1.0000   1.0000
     1.0000   1.0000   1.0000   1.0000   1.0000   1.0000   1.0000   1.0000
     1.0000   1.0000   1.0000   1.0000   1.0000   1.0000   1.0000   1.0000
     1.0000   1.0000   1.0000   1.0000   1.0000   1.0000   1.0000   1.0000
     1.0000   1.0000   1.0000   1.0000   1.0000   1.0000   1.0000   1.0000
     1.0000   1.0000   1.0000   1.0000   1.0000   1.0000   1.0000   1.0000
     1.0000   1.0000   1.0000   1.0000   1.0000   1.0000   1.0000   1.0000
     1.0000   1.0000   1.0000   1.0000   1.0000   1.0000   1.0000   1.0000
     1.0000   1.0000   1.0000   1.0000   1.0000   1.0000   1.0000   1.0000
     1.0000   1.0000   1.0000   1.0000   1.0000   1.0000   1.0000   1.0000
     1.0000   1.0000   1.0000   1.0000   1.0000   1.0000   1.0000   1.0000
     1.0000   1.0000   1.0000   1.0000   1.0000   1.0000   1.0000   1.0000
     1.0000   1.0000   1.0000   1.0000   1.0000   1.0000   1.0000   1.0000
     1.0000   1.0000   1.0000   1.0000   1.0000   1.0000   1.0000   1.0000
     1.0000   1.0000   1.0000   1.0000   1.0000   1.0000   1.0000   1.0000
     1.0000   1.0000   1.0000   1.0000   1.0000   1.0000   1.0000   1.0000
     1.0000   1.0000   1.0000   1.0000   0.9999   0.0002   0.0001   0.0000
     0.0000   0.0000   0.0000   0.0000   0.0000   0.0000   0.0000   0.0000
     0.0000   0.0000   0.0000   0.0000   0.0000   0.0000   0.0000   0.0000
     0.0000   0.0000   0.0000   0.0000   0.0000   0.0000   0.0000   0.0000
     0.0000   0.0000   0.0000   0.0000   0.0000   0.0000   0.0000   0.0000
     0.0000   0.0000   0.0000   0.0000   0.0000   0.0000

          k = 0.1667 0.2887 0.0000 (126343 PWs)   bands (ev):

   -60.3628 -60.3569 -60.3561 -60.3446 -60.3385 -60.3380 -60.3328 -60.3093
   -60.3093 -60.3078 -60.3003 -60.3001 -60.2960 -60.2925 -60.2763 -60.2761
   -34.6538 -34.6478 -34.6081 -34.6044 -34.5993 -34.5829 -34.5762 -34.5592
   -34.5408 -34.5288 -34.5015 -34.4943 -34.4736 -34.4663 -34.4568 -34.4550
   -34.4536 -34.4424 -34.4386 -34.4342 -34.4306 -34.4280 -34.4259 -34.4247
   -34.4068 -34.4050 -34.4024 -34.3970 -34.3942 -34.3905 -34.3881 -34.3870
   -34.3845 -34.3794 -34.3785 -34.3740 -34.3674 -34.3597 -34.3571 -34.3568
   -34.3473 -34.3445 -34.3357 -34.3080 -34.3029 -34.2941 -34.2205 -34.2158
   -13.3906 -12.9928 -12.9571 -12.6424 -12.5784 -12.3172 -12.3014 -12.1402
   -12.0405 -11.9864 -11.9692 -11.8648 -11.8519 -11.8298 -11.7958 -11.7650
   -11.7475 -11.6991 -11.6915 -11.6272 -11.6004 -11.5888 -11.5377 -11.5299
   -11.5029 -11.4941 -11.4891 -11.4460 -11.4052 -11.3974 -11.3513  -5.0918
    -5.0014  -4.9995  -4.8985  -4.6671  -4.6413  -4.6148  -4.5782  -4.5488
    -4.5417  -4.5222  -4.5085  -4.4894  -4.4492  -4.4423  -4.3858  -4.3613
    -4.2943  -4.2355  -4.2007  -4.0982  -4.0511  -3.9807  -3.8800  -3.7087
    -3.4497  -3.4470  -3.4382  -3.4142  -3.3563  -3.3258  -3.2892  -3.2688
    -3.2316  -3.2255  -3.1866  -3.1742  -3.1342  -3.1164  -3.0548  -2.9770
    -2.9373  -2.8900  -2.8213  -2.7786  -2.6940  -2.6666  -2.6223  -2.5996
    -2.5697  -2.5430  -2.5168  -2.4796  -2.3941  -2.3609  -2.3032  -2.2793
    -2.2581  -2.2348  -2.2135  -2.1449  -2.0558  -1.9559  -1.8712  -1.7763
    -1.7427  -1.7418  -1.6488  -1.6212  -1.5960  -1.4729  -1.3827  -1.3387
    -1.3115  -1.2588  -1.2385  -1.2268  -1.1971  -1.1324  -1.1002  -1.0541
    -0.9981  -0.9639  -0.9503  -0.9187  -0.8279  -0.7974  -0.7368  -0.6813
    -0.6215  -0.5905  -0.5449  -0.5250  -0.3539  -0.3402  -0.2297  -0.1988
    -0.1391  -0.1352  -0.1151  -0.0994  -0.0508   0.0628   0.1203   0.1520
     0.2124   0.2212   0.3425   0.4443   0.6324   1.7395   1.7632   2.4040
     2.5922   2.6055   2.6287   2.6679   2.6822   2.7090   2.7231   2.7433
     2.7673   2.7761   2.8096   2.8330   2.8575   2.8813   2.9236   2.9807
     3.0057   3.0427   3.0687   3.1005   3.1360   3.1527   3.1700   3.1802
     3.2165   3.2349   3.2934   3.3025   3.3037   3.3648   3.3840   3.4643
     3.5311   3.5512   3.6334   3.6847   3.7077   3.7216

     occupation numbers 
     1.0000   1.0000   1.0000   1.0000   1.0000   1.0000   1.0000   1.0000
     1.0000   1.0000   1.0000   1.0000   1.0000   1.0000   1.0000   1.0000
     1.0000   1.0000   1.0000   1.0000   1.0000   1.0000   1.0000   1.0000
     1.0000   1.0000   1.0000   1.0000   1.0000   1.0000   1.0000   1.0000
     1.0000   1.0000   1.0000   1.0000   1.0000   1.0000   1.0000   1.0000
     1.0000   1.0000   1.0000   1.0000   1.0000   1.0000   1.0000   1.0000
     1.0000   1.0000   1.0000   1.0000   1.0000   1.0000   1.0000   1.0000
     1.0000   1.0000   1.0000   1.0000   1.0000   1.0000   1.0000   1.0000
     1.0000   1.0000   1.0000   1.0000   1.0000   1.0000   1.0000   1.0000
     1.0000   1.0000   1.0000   1.0000   1.0000   1.0000   1.0000   1.0000
     1.0000   1.0000   1.0000   1.0000   1.0000   1.0000   1.0000   1.0000
     1.0000   1.0000   1.0000   1.0000   1.0000   1.0000   1.0000   1.0000
     1.0000   1.0000   1.0000   1.0000   1.0000   1.0000   1.0000   1.0000
     1.0000   1.0000   1.0000   1.0000   1.0000   1.0000   1.0000   1.0000
     1.0000   1.0000   1.0000   1.0000   1.0000   1.0000   1.0000   1.0000
     1.0000   1.0000   1.0000   1.0000   1.0000   1.0000   1.0000   1.0000
     1.0000   1.0000   1.0000   1.0000   1.0000   1.0000   1.0000   1.0000
     1.0000   1.0000   1.0000   1.0000   1.0000   1.0000   1.0000   1.0000
     1.0000   1.0000   1.0000   1.0000   1.0000   1.0000   1.0000   1.0000
     1.0000   1.0000   1.0000   1.0000   1.0000   1.0000   1.0000   1.0000
     1.0000   1.0000   1.0000   1.0000   1.0000   1.0000   1.0000   1.0000
     1.0000   1.0000   1.0000   1.0000   1.0000   1.0000   1.0000   1.0000
     1.0000   1.0000   1.0000   1.0000   1.0000   1.0000   1.0000   1.0000
     1.0000   1.0000   1.0000   1.0000   1.0000   1.0000   1.0000   1.0000
     1.0000   1.0000   1.0000   1.0000   1.0000   1.0000   1.0000   1.0000
     1.0000   1.0000   1.0000   1.0000   0.9996   0.0002   0.0002   0.0000
     0.0000   0.0000   0.0000   0.0000   0.0000   0.0000   0.0000   0.0000
     0.0000   0.0000   0.0000   0.0000   0.0000   0.0000   0.0000   0.0000
     0.0000   0.0000   0.0000   0.0000   0.0000   0.0000   0.0000   0.0000
     0.0000   0.0000   0.0000   0.0000   0.0000   0.0000   0.0000   0.0000
     0.0000   0.0000   0.0000   0.0000   0.0000   0.0000

          k = 0.1667 0.4811 0.0000 (126406 PWs)   bands (ev):

   -60.3624 -60.3575 -60.3562 -60.3444 -60.3388 -60.3379 -60.3326 -60.3093
   -60.3091 -60.3077 -60.3005 -60.3004 -60.2958 -60.2924 -60.2764 -60.2762
   -34.6461 -34.6333 -34.6153 -34.6059 -34.6005 -34.5871 -34.5732 -34.5615
   -34.5559 -34.5313 -34.5171 -34.4976 -34.4726 -34.4717 -34.4594 -34.4550
   -34.4491 -34.4430 -34.4414 -34.4330 -34.4275 -34.4244 -34.4209 -34.4083
   -34.4067 -34.4047 -34.4014 -34.3977 -34.3916 -34.3901 -34.3874 -34.3836
   -34.3800 -34.3786 -34.3728 -34.3712 -34.3641 -34.3579 -34.3575 -34.3559
   -34.3540 -34.3424 -34.3373 -34.3162 -34.3072 -34.2943 -34.2239 -34.2165
   -13.2966 -13.1520 -13.0134 -12.6501 -12.4321 -12.2433 -12.1623 -12.1146
   -12.0843 -12.0504 -12.0061 -11.9765 -11.8926 -11.8490 -11.8118 -11.7702
   -11.7509 -11.6864 -11.6425 -11.6230 -11.6092 -11.5816 -11.5696 -11.5465
   -11.5070 -11.5002 -11.4749 -11.4214 -11.4082 -11.3767 -11.3299  -4.9617
    -4.8888  -4.8811  -4.7958  -4.7829  -4.7559  -4.7140  -4.6826  -4.6424
    -4.6254  -4.6031  -4.5559  -4.5028  -4.4862  -4.4141  -4.3647  -4.3486
    -4.2731  -4.2528  -4.1044  -4.0550  -3.9667  -3.8754  -3.7803  -3.6588
    -3.5747  -3.4182  -3.4075  -3.3835  -3.3531  -3.3407  -3.3244  -3.3086
    -3.2957  -3.2795  -3.2671  -3.2329  -3.2272  -3.1427  -3.1026  -3.0048
    -2.9163  -2.8206  -2.7437  -2.6960  -2.6609  -2.6280  -2.5987  -2.5757
    -2.5452  -2.5136  -2.4992  -2.4794  -2.4509  -2.4255  -2.3945  -2.3781
    -2.3002  -2.2566  -2.1576  -2.0324  -1.9997  -1.8637  -1.8144  -1.7713
    -1.6954  -1.6731  -1.6045  -1.4986  -1.4794  -1.4487  -1.3967  -1.3610
    -1.3542  -1.3379  -1.3043  -1.2621  -1.2208  -1.2090  -1.1624  -1.1221
    -1.0867  -1.0311  -0.9943  -0.9686  -0.8910  -0.7982  -0.7619  -0.6897
    -0.5708  -0.5501  -0.4533  -0.4341  -0.3295  -0.3034  -0.2619  -0.2427
    -0.2221  -0.1890  -0.1102  -0.0950  -0.0553   0.1066   0.1462   0.2156
     0.2867   0.3576   0.4429   0.4647   0.5743   1.7331   1.7821   2.2794
     2.5263   2.5348   2.5985   2.6271   2.6657   2.6840   2.7088   2.7219
     2.7620   2.7896   2.7979   2.8319   2.8889   2.9547   2.9837   2.9990
     3.0237   3.0417   3.0591   3.0726   3.0847   3.1050   3.1116   3.1234
     3.1570   3.1679   3.1943   3.2385   3.3045   3.3445   3.4129   3.4481
     3.5300   3.5848   3.6737   3.7137   3.7551   3.7662

     occupation numbers 
     1.0000   1.0000   1.0000   1.0000   1.0000   1.0000   1.0000   1.0000
     1.0000   1.0000   1.0000   1.0000   1.0000   1.0000   1.0000   1.0000
     1.0000   1.0000   1.0000   1.0000   1.0000   1.0000   1.0000   1.0000
     1.0000   1.0000   1.0000   1.0000   1.0000   1.0000   1.0000   1.0000
     1.0000   1.0000   1.0000   1.0000   1.0000   1.0000   1.0000   1.0000
     1.0000   1.0000   1.0000   1.0000   1.0000   1.0000   1.0000   1.0000
     1.0000   1.0000   1.0000   1.0000   1.0000   1.0000   1.0000   1.0000
     1.0000   1.0000   1.0000   1.0000   1.0000   1.0000   1.0000   1.0000
     1.0000   1.0000   1.0000   1.0000   1.0000   1.0000   1.0000   1.0000
     1.0000   1.0000   1.0000   1.0000   1.0000   1.0000   1.0000   1.0000
     1.0000   1.0000   1.0000   1.0000   1.0000   1.0000   1.0000   1.0000
     1.0000   1.0000   1.0000   1.0000   1.0000   1.0000   1.0000   1.0000
     1.0000   1.0000   1.0000   1.0000   1.0000   1.0000   1.0000   1.0000
     1.0000   1.0000   1.0000   1.0000   1.0000   1.0000   1.0000   1.0000
     1.0000   1.0000   1.0000   1.0000   1.0000   1.0000   1.0000   1.0000
     1.0000   1.0000   1.0000   1.0000   1.0000   1.0000   1.0000   1.0000
     1.0000   1.0000   1.0000   1.0000   1.0000   1.0000   1.0000   1.0000
     1.0000   1.0000   1.0000   1.0000   1.0000   1.0000   1.0000   1.0000
     1.0000   1.0000   1.0000   1.0000   1.0000   1.0000   1.0000   1.0000
     1.0000   1.0000   1.0000   1.0000   1.0000   1.0000   1.0000   1.0000
     1.0000   1.0000   1.0000   1.0000   1.0000   1.0000   1.0000   1.0000
     1.0000   1.0000   1.0000   1.0000   1.0000   1.0000   1.0000   1.0000
     1.0000   1.0000   1.0000   1.0000   1.0000   1.0000   1.0000   1.0000
     1.0000   1.0000   1.0000   1.0000   1.0000   1.0000   1.0000   1.0000
     1.0000   1.0000   1.0000   1.0000   1.0000   1.0000   1.0000   1.0000
     1.0000   1.0000   1.0000   1.0000   0.9998   0.0002   0.0001   0.0000
     0.0000   0.0000   0.0000   0.0000   0.0000   0.0000   0.0000   0.0000
     0.0000   0.0000   0.0000   0.0000   0.0000   0.0000   0.0000   0.0000
     0.0000   0.0000   0.0000   0.0000   0.0000   0.0000   0.0000   0.0000
     0.0000   0.0000   0.0000   0.0000   0.0000   0.0000   0.0000   0.0000
     0.0000   0.0000   0.0000   0.0000   0.0000   0.0000

          k = 0.3333 0.5774 0.0000 (126429 PWs)   bands (ev):

   -60.3622 -60.3577 -60.3562 -60.3443 -60.3389 -60.3379 -60.3325 -60.3093
   -60.3091 -60.3077 -60.3006 -60.3005 -60.2958 -60.2924 -60.2763 -60.2762
   -34.6415 -34.6295 -34.6167 -34.6038 -34.5971 -34.5932 -34.5825 -34.5620
   -34.5565 -34.5255 -34.5224 -34.5036 -34.4711 -34.4685 -34.4593 -34.4569
   -34.4568 -34.4412 -34.4327 -34.4277 -34.4263 -34.4239 -34.4235 -34.4218
   -34.4076 -34.4041 -34.3977 -34.3920 -34.3915 -34.3879 -34.3876 -34.3829
   -34.3791 -34.3763 -34.3719 -34.3642 -34.3620 -34.3594 -34.3585 -34.3570
   -34.3556 -34.3438 -34.3332 -34.3241 -34.3073 -34.2951 -34.2245 -34.2172
   -13.2026 -13.1906 -13.1304 -12.4786 -12.4739 -12.3915 -12.0810 -12.0589
   -12.0498 -11.9917 -11.9884 -11.9638 -11.9535 -11.9526 -11.8347 -11.7853
   -11.7756 -11.7216 -11.6029 -11.5945 -11.5651 -11.5650 -11.5617 -11.5560
   -11.5520 -11.5382 -11.4703 -11.3977 -11.3942 -11.3901 -11.3215  -4.8534
    -4.7971  -4.7960  -4.7840  -4.7779  -4.7636  -4.7573  -4.7564  -4.6888
    -4.6847  -4.6779  -4.6090  -4.5972  -4.4883  -4.4387  -4.3692  -4.3155
    -4.2614  -4.2612  -3.9520  -3.9328  -3.8683  -3.8532  -3.8522  -3.7563
    -3.6956  -3.4415  -3.3688  -3.3687  -3.3642  -3.3535  -3.3251  -3.3038
    -3.2959  -3.2854  -3.2811  -3.2429  -3.1793  -3.1791  -3.0444  -3.0212
    -2.9571  -2.8194  -2.7382  -2.6326  -2.6236  -2.6015  -2.5924  -2.5797
    -2.5712  -2.5575  -2.5323  -2.5181  -2.5180  -2.5116  -2.4518  -2.3823
    -2.1661  -2.1646  -2.0498  -2.0169  -2.0145  -1.8003  -1.7748  -1.7482
    -1.7358  -1.6818  -1.5968  -1.5378  -1.5049  -1.4921  -1.4763  -1.4211
    -1.3381  -1.3046  -1.2658  -1.2206  -1.1828  -1.0795  -1.0791  -1.0708
    -1.0622  -1.0566  -1.0511  -1.0510  -1.0398  -1.0237  -0.7727  -0.6597
    -0.5537  -0.4857  -0.4482  -0.4046  -0.2825  -0.2451  -0.2433  -0.2210
    -0.2169  -0.2070  -0.1794  -0.1623  -0.1210   0.1605   0.1720   0.2522
     0.3322   0.3823   0.4283   0.5132   0.5447   1.7248   1.7960   2.2132
     2.4948   2.5759   2.5821   2.6371   2.6533   2.6566   2.6983   2.7263
     2.7430   2.7923   2.7953   2.8191   2.9571   2.9640   2.9879   2.9989
     3.0383   3.0464   3.0465   3.0635   3.0664   3.0685   3.0792   3.1117
     3.1318   3.1466   3.1864   3.2118   3.2526   3.2925   3.3728   3.5496
     3.5544   3.6580   3.6793   3.6841   3.7706   3.8111

     occupation numbers 
     1.0000   1.0000   1.0000   1.0000   1.0000   1.0000   1.0000   1.0000
     1.0000   1.0000   1.0000   1.0000   1.0000   1.0000   1.0000   1.0000
     1.0000   1.0000   1.0000   1.0000   1.0000   1.0000   1.0000   1.0000
     1.0000   1.0000   1.0000   1.0000   1.0000   1.0000   1.0000   1.0000
     1.0000   1.0000   1.0000   1.0000   1.0000   1.0000   1.0000   1.0000
     1.0000   1.0000   1.0000   1.0000   1.0000   1.0000   1.0000   1.0000
     1.0000   1.0000   1.0000   1.0000   1.0000   1.0000   1.0000   1.0000
     1.0000   1.0000   1.0000   1.0000   1.0000   1.0000   1.0000   1.0000
     1.0000   1.0000   1.0000   1.0000   1.0000   1.0000   1.0000   1.0000
     1.0000   1.0000   1.0000   1.0000   1.0000   1.0000   1.0000   1.0000
     1.0000   1.0000   1.0000   1.0000   1.0000   1.0000   1.0000   1.0000
     1.0000   1.0000   1.0000   1.0000   1.0000   1.0000   1.0000   1.0000
     1.0000   1.0000   1.0000   1.0000   1.0000   1.0000   1.0000   1.0000
     1.0000   1.0000   1.0000   1.0000   1.0000   1.0000   1.0000   1.0000
     1.0000   1.0000   1.0000   1.0000   1.0000   1.0000   1.0000   1.0000
     1.0000   1.0000   1.0000   1.0000   1.0000   1.0000   1.0000   1.0000
     1.0000   1.0000   1.0000   1.0000   1.0000   1.0000   1.0000   1.0000
     1.0000   1.0000   1.0000   1.0000   1.0000   1.0000   1.0000   1.0000
     1.0000   1.0000   1.0000   1.0000   1.0000   1.0000   1.0000   1.0000
     1.0000   1.0000   1.0000   1.0000   1.0000   1.0000   1.0000   1.0000
     1.0000   1.0000   1.0000   1.0000   1.0000   1.0000   1.0000   1.0000
     1.0000   1.0000   1.0000   1.0000   1.0000   1.0000   1.0000   1.0000
     1.0000   1.0000   1.0000   1.0000   1.0000   1.0000   1.0000   1.0000
     1.0000   1.0000   1.0000   1.0000   1.0000   1.0000   1.0000   1.0000
     1.0000   1.0000   1.0000   1.0000   1.0000   1.0000   1.0000   1.0000
     1.0000   1.0000   1.0000   0.9999   0.9999   0.0003   0.0001   0.0000
     0.0000   0.0000   0.0000   0.0000   0.0000   0.0000   0.0000   0.0000
     0.0000   0.0000   0.0000   0.0000   0.0000   0.0000   0.0000   0.0000
     0.0000   0.0000   0.0000   0.0000   0.0000   0.0000   0.0000   0.0000
     0.0000   0.0000   0.0000   0.0000   0.0000   0.0000   0.0000   0.0000
     0.0000   0.0000   0.0000   0.0000   0.0000   0.0000

 ------ SPIN DOWN ----------


          k = 0.0000 0.0000 0.0000 (126355 PWs)   bands (ev):

   -60.3635 -60.3561 -60.3560 -60.3450 -60.3380 -60.3380 -60.3332 -60.3094
   -60.3094 -60.3079 -60.2998 -60.2998 -60.2963 -60.2926 -60.2763 -60.2762
   -34.6618 -34.6618 -34.6172 -34.5969 -34.5897 -34.5897 -34.5648 -34.5648
   -34.5259 -34.4865 -34.4757 -34.4747 -34.4747 -34.4727 -34.4727 -34.4527
   -34.4526 -34.4505 -34.4478 -34.4388 -34.4355 -34.4322 -34.4322 -34.4292
   -34.4292 -34.4052 -34.4051 -34.4008 -34.4007 -34.3974 -34.3874 -34.3866
   -34.3865 -34.3855 -34.3787 -34.3774 -34.3675 -34.3674 -34.3574 -34.3573
   -34.3377 -34.3376 -34.3346 -34.3062 -34.2935 -34.2935 -34.2150 -34.2149
   -13.4640 -12.7119 -12.7118 -12.6823 -12.6740 -12.6740 -12.5537 -12.1688
   -11.8960 -11.8959 -11.8457 -11.8457 -11.8452 -11.8111 -11.7198 -11.7197
   -11.7120 -11.7119 -11.6943 -11.6753 -11.6752 -11.6685 -11.5595 -11.4800
   -11.4800 -11.4565 -11.4565 -11.4392 -11.4392 -11.4342 -11.4270  -5.2006
    -5.0989  -5.0989  -4.9852  -4.5268  -4.5267  -4.5237  -4.4973  -4.4757
    -4.4757  -4.4237  -4.4112  -4.4112  -4.3897  -4.3896  -4.3656  -4.3119
    -4.3119  -4.2846  -4.2649  -4.2362  -4.2362  -4.1435  -3.9411  -3.9411
    -3.4824  -3.4824  -3.4382  -3.3213  -3.2630  -3.2493  -3.2493  -3.1802
    -3.1802  -3.0883  -3.0512  -3.0414  -3.0414  -3.0309  -3.0309  -2.9955
    -2.9727  -2.9727  -2.8500  -2.8500  -2.7256  -2.6716  -2.6715  -2.6444
    -2.6129  -2.6129  -2.5867  -2.4479  -2.4461  -2.4461  -2.3199  -2.3198
    -2.2995  -2.2431  -2.1592  -2.1591  -2.0294  -2.0294  -1.9390  -1.9211
    -1.9211  -1.9052  -1.6048  -1.6048  -1.2948  -1.2922  -1.2921  -1.2911
    -1.2727  -1.2727  -1.1802  -1.1540  -1.1043  -1.1043  -1.0596  -1.0595
    -1.0344  -1.0021  -1.0021  -0.9157  -0.8487  -0.8487  -0.7944  -0.7385
    -0.7385  -0.5409  -0.5409  -0.4576  -0.2474  -0.1709  -0.1708  -0.1386
    -0.1238  -0.1192  -0.1192  -0.0472  -0.0472  -0.0038  -0.0038   0.0268
     0.0359   0.0785   0.0785   0.4308   0.6820   1.7439   1.7440   2.6679
     2.6833   2.6922   2.6922   2.7252   2.7253   2.7383   2.7471   2.7471
     2.7716   2.7716   2.8087   2.8157   2.8157   2.8636   2.9057   2.9230
     2.9230   2.9782   3.1570   3.1570   3.2739   3.2944   3.2944   3.3251
     3.3251   3.3437   3.3538   3.3538   3.3877   3.4190   3.4190   3.4536
     3.4536   3.4659   3.5099   3.5099   3.5979   3.6609

     occupation numbers 
     1.0000   1.0000   1.0000   1.0000   1.0000   1.0000   1.0000   1.0000
     1.0000   1.0000   1.0000   1.0000   1.0000   1.0000   1.0000   1.0000
     1.0000   1.0000   1.0000   1.0000   1.0000   1.0000   1.0000   1.0000
     1.0000   1.0000   1.0000   1.0000   1.0000   1.0000   1.0000   1.0000
     1.0000   1.0000   1.0000   1.0000   1.0000   1.0000   1.0000   1.0000
     1.0000   1.0000   1.0000   1.0000   1.0000   1.0000   1.0000   1.0000
     1.0000   1.0000   1.0000   1.0000   1.0000   1.0000   1.0000   1.0000
     1.0000   1.0000   1.0000   1.0000   1.0000   1.0000   1.0000   1.0000
     1.0000   1.0000   1.0000   1.0000   1.0000   1.0000   1.0000   1.0000
     1.0000   1.0000   1.0000   1.0000   1.0000   1.0000   1.0000   1.0000
     1.0000   1.0000   1.0000   1.0000   1.0000   1.0000   1.0000   1.0000
     1.0000   1.0000   1.0000   1.0000   1.0000   1.0000   1.0000   1.0000
     1.0000   1.0000   1.0000   1.0000   1.0000   1.0000   1.0000   1.0000
     1.0000   1.0000   1.0000   1.0000   1.0000   1.0000   1.0000   1.0000
     1.0000   1.0000   1.0000   1.0000   1.0000   1.0000   1.0000   1.0000
     1.0000   1.0000   1.0000   1.0000   1.0000   1.0000   1.0000   1.0000
     1.0000   1.0000   1.0000   1.0000   1.0000   1.0000   1.0000   1.0000
     1.0000   1.0000   1.0000   1.0000   1.0000   1.0000   1.0000   1.0000
     1.0000   1.0000   1.0000   1.0000   1.0000   1.0000   1.0000   1.0000
     1.0000   1.0000   1.0000   1.0000   1.0000   1.0000   1.0000   1.0000
     1.0000   1.0000   1.0000   1.0000   1.0000   1.0000   1.0000   1.0000
     1.0000   1.0000   1.0000   1.0000   1.0000   1.0000   1.0000   1.0000
     1.0000   1.0000   1.0000   1.0000   1.0000   1.0000   1.0000   1.0000
     1.0000   1.0000   1.0000   1.0000   1.0000   1.0000   1.0000   1.0000
     1.0000   1.0000   1.0000   1.0000   1.0000   1.0000   1.0000   1.0000
     1.0000   1.0000   1.0000   1.0000   0.9992   0.0002   0.0002   0.0000
     0.0000   0.0000   0.0000   0.0000   0.0000   0.0000   0.0000   0.0000
     0.0000   0.0000   0.0000   0.0000   0.0000   0.0000   0.0000   0.0000
     0.0000   0.0000   0.0000   0.0000   0.0000   0.0000   0.0000   0.0000
     0.0000   0.0000   0.0000   0.0000   0.0000   0.0000   0.0000   0.0000
     0.0000   0.0000   0.0000   0.0000   0.0000   0.0000

          k = 0.0000 0.1925 0.0000 (126305 PWs)   bands (ev):

   -60.3632 -60.3564 -60.3560 -60.3448 -60.3382 -60.3380 -60.3330 -60.3094
   -60.3094 -60.3079 -60.3000 -60.2999 -60.2962 -60.2925 -60.2763 -60.2762
   -34.6590 -34.6570 -34.6138 -34.5995 -34.5915 -34.5890 -34.5694 -34.5617
   -34.5325 -34.5086 -34.4918 -34.4836 -34.4750 -34.4682 -34.4564 -34.4542
   -34.4529 -34.4441 -34.4440 -34.4395 -34.4352 -34.4289 -34.4279 -34.4240
   -34.4211 -34.4055 -34.4054 -34.4037 -34.3972 -34.3951 -34.3877 -34.3876
   -34.3852 -34.3789 -34.3782 -34.3741 -34.3686 -34.3675 -34.3573 -34.3572
   -34.3418 -34.3403 -34.3343 -34.3065 -34.2971 -34.2936 -34.2172 -34.2152
   -13.4393 -12.8943 -12.7929 -12.7475 -12.5600 -12.5123 -12.4263 -12.1590
   -11.9510 -11.9184 -11.8860 -11.8635 -11.8451 -11.8115 -11.7850 -11.7616
   -11.7171 -11.7087 -11.6809 -11.6782 -11.6275 -11.5811 -11.5470 -11.5186
   -11.4999 -11.4817 -11.4671 -11.4445 -11.4374 -11.4029 -11.3838  -5.1633
    -5.0655  -5.0649  -4.9557  -4.5837  -4.5512  -4.5510  -4.5353  -4.5188
    -4.4893  -4.4685  -4.4414  -4.4290  -4.4205  -4.4083  -4.3902  -4.3888
    -4.3010  -4.2686  -4.2514  -4.1646  -4.0945  -4.0853  -3.9103  -3.8886
    -3.4691  -3.4689  -3.4195  -3.3342  -3.3054  -3.2764  -3.2741  -3.1932
    -3.1615  -3.1590  -3.1303  -3.1083  -3.0991  -3.0838  -3.0763  -3.0095
    -3.0042  -2.9008  -2.7598  -2.7523  -2.6951  -2.6757  -2.6447  -2.6424
    -2.5919  -2.5876  -2.5608  -2.5559  -2.5426  -2.3943  -2.2972  -2.2920
    -2.1614  -2.1496  -2.1123  -2.1011  -2.0642  -2.0138  -2.0003  -1.9706
    -1.9265  -1.8006  -1.6374  -1.6006  -1.4376  -1.4121  -1.3189  -1.2939
    -1.2468  -1.2400  -1.2217  -1.2075  -1.1506  -1.1435  -1.0679  -1.0622
    -1.0196  -0.9632  -0.9113  -0.9038  -0.8224  -0.7990  -0.7505  -0.6727
    -0.6616  -0.6120  -0.6032  -0.5144  -0.3310  -0.2629  -0.2291  -0.1593
    -0.1307  -0.1293  -0.0511  -0.0390  -0.0303   0.0140   0.0154   0.0341
     0.1127   0.1872   0.1900   0.4355   0.6656   1.7439   1.7490   2.5682
     2.5824   2.6815   2.6892   2.7108   2.7195   2.7224   2.7306   2.7573
     2.7631   2.7860   2.7940   2.8277   2.8315   2.8665   2.8907   2.9619
     2.9722   3.0070   3.1096   3.1155   3.1879   3.2224   3.2414   3.2529
     3.2834   3.2889   3.3210   3.3438   3.3694   3.3804   3.4209   3.4377
     3.5159   3.5328   3.6079   3.6262   3.6435   3.6466

     occupation numbers 
     1.0000   1.0000   1.0000   1.0000   1.0000   1.0000   1.0000   1.0000
     1.0000   1.0000   1.0000   1.0000   1.0000   1.0000   1.0000   1.0000
     1.0000   1.0000   1.0000   1.0000   1.0000   1.0000   1.0000   1.0000
     1.0000   1.0000   1.0000   1.0000   1.0000   1.0000   1.0000   1.0000
     1.0000   1.0000   1.0000   1.0000   1.0000   1.0000   1.0000   1.0000
     1.0000   1.0000   1.0000   1.0000   1.0000   1.0000   1.0000   1.0000
     1.0000   1.0000   1.0000   1.0000   1.0000   1.0000   1.0000   1.0000
     1.0000   1.0000   1.0000   1.0000   1.0000   1.0000   1.0000   1.0000
     1.0000   1.0000   1.0000   1.0000   1.0000   1.0000   1.0000   1.0000
     1.0000   1.0000   1.0000   1.0000   1.0000   1.0000   1.0000   1.0000
     1.0000   1.0000   1.0000   1.0000   1.0000   1.0000   1.0000   1.0000
     1.0000   1.0000   1.0000   1.0000   1.0000   1.0000   1.0000   1.0000
     1.0000   1.0000   1.0000   1.0000   1.0000   1.0000   1.0000   1.0000
     1.0000   1.0000   1.0000   1.0000   1.0000   1.0000   1.0000   1.0000
     1.0000   1.0000   1.0000   1.0000   1.0000   1.0000   1.0000   1.0000
     1.0000   1.0000   1.0000   1.0000   1.0000   1.0000   1.0000   1.0000
     1.0000   1.0000   1.0000   1.0000   1.0000   1.0000   1.0000   1.0000
     1.0000   1.0000   1.0000   1.0000   1.0000   1.0000   1.0000   1.0000
     1.0000   1.0000   1.0000   1.0000   1.0000   1.0000   1.0000   1.0000
     1.0000   1.0000   1.0000   1.0000   1.0000   1.0000   1.0000   1.0000
     1.0000   1.0000   1.0000   1.0000   1.0000   1.0000   1.0000   1.0000
     1.0000   1.0000   1.0000   1.0000   1.0000   1.0000   1.0000   1.0000
     1.0000   1.0000   1.0000   1.0000   1.0000   1.0000   1.0000   1.0000
     1.0000   1.0000   1.0000   1.0000   1.0000   1.0000   1.0000   1.0000
     1.0000   1.0000   1.0000   1.0000   1.0000   1.0000   1.0000   1.0000
     1.0000   1.0000   1.0000   1.0000   0.9994   0.0002   0.0002   0.0000
     0.0000   0.0000   0.0000   0.0000   0.0000   0.0000   0.0000   0.0000
     0.0000   0.0000   0.0000   0.0000   0.0000   0.0000   0.0000   0.0000
     0.0000   0.0000   0.0000   0.0000   0.0000   0.0000   0.0000   0.0000
     0.0000   0.0000   0.0000   0.0000   0.0000   0.0000   0.0000   0.0000
     0.0000   0.0000   0.0000   0.0000   0.0000   0.0000

          k = 0.0000 0.3849 0.0000 (126328 PWs)   bands (ev):

   -60.3627 -60.3572 -60.3561 -60.3445 -60.3386 -60.3379 -60.3327 -60.3093
   -60.3092 -60.3078 -60.3004 -60.3002 -60.2960 -60.2924 -60.2763 -60.2762
   -34.6518 -34.6435 -34.6102 -34.6064 -34.5952 -34.5907 -34.5715 -34.5539
   -34.5489 -34.5338 -34.5102 -34.4853 -34.4760 -34.4731 -34.4591 -34.4565
   -34.4533 -34.4419 -34.4337 -34.4317 -34.4307 -34.4274 -34.4255 -34.4121
   -34.4085 -34.4058 -34.4043 -34.3972 -34.3917 -34.3911 -34.3889 -34.3856
   -34.3830 -34.3790 -34.3771 -34.3767 -34.3667 -34.3578 -34.3572 -34.3532
   -34.3502 -34.3458 -34.3359 -34.3076 -34.3072 -34.2936 -34.2219 -34.2158
   -13.3666 -13.0846 -12.8529 -12.7989 -12.4028 -12.3669 -12.2147 -12.1307
   -12.0449 -12.0386 -11.9908 -11.9358 -11.8950 -11.8248 -11.7526 -11.7370
   -11.7056 -11.6827 -11.6825 -11.6683 -11.6326 -11.5936 -11.5619 -11.5213
   -11.5028 -11.4763 -11.4642 -11.4448 -11.4377 -11.3729 -11.3475  -5.0582
    -4.9716  -4.9684  -4.8709  -4.7239  -4.6784  -4.6609  -4.6156  -4.6069
    -4.5754  -4.5103  -4.4988  -4.4370  -4.4252  -4.4086  -4.3647  -4.3531
    -4.3087  -4.2484  -4.2279  -4.1710  -4.0299  -3.9351  -3.7428  -3.7115
    -3.5318  -3.4306  -3.4283  -3.3762  -3.3300  -3.3098  -3.3071  -3.2878
    -3.2617  -3.2440  -3.2392  -3.2016  -3.1557  -3.1516  -3.1264  -3.0073
    -2.9386  -2.7985  -2.6970  -2.6817  -2.6518  -2.6380  -2.6278  -2.6273
    -2.5983  -2.5588  -2.5419  -2.4838  -2.4388  -2.4099  -2.3824  -2.3248
    -2.3084  -2.2373  -2.1081  -2.0835  -2.0148  -1.9366  -1.8525  -1.7602
    -1.7471  -1.6832  -1.6819  -1.5795  -1.5750  -1.4687  -1.3833  -1.3662
    -1.3189  -1.3097  -1.2282  -1.2216  -1.1714  -1.1628  -1.1359  -1.1243
    -1.0148  -1.0062  -0.9507  -0.9092  -0.8165  -0.7876  -0.7480  -0.6808
    -0.6164  -0.6055  -0.5014  -0.4637  -0.3851  -0.3124  -0.2713  -0.2363
    -0.2018  -0.1938  -0.0129   0.0064   0.0177   0.0402   0.0512   0.0638
     0.2922   0.3227   0.3284   0.4507   0.6164   1.7438   1.7623   2.4250
     2.4551   2.6059   2.6337   2.6566   2.6886   2.6961   2.7205   2.7388
     2.7572   2.7736   2.8033   2.8460   2.8733   2.9004   2.9313   2.9934
     3.0088   3.0449   3.0630   3.0954   3.1034   3.1215   3.1484   3.1748
     3.2017   3.2545   3.2716   3.3020   3.3428   3.3518   3.3714   3.4668
     3.5111   3.5342   3.5797   3.6566   3.7376   3.7432

     occupation numbers 
     1.0000   1.0000   1.0000   1.0000   1.0000   1.0000   1.0000   1.0000
     1.0000   1.0000   1.0000   1.0000   1.0000   1.0000   1.0000   1.0000
     1.0000   1.0000   1.0000   1.0000   1.0000   1.0000   1.0000   1.0000
     1.0000   1.0000   1.0000   1.0000   1.0000   1.0000   1.0000   1.0000
     1.0000   1.0000   1.0000   1.0000   1.0000   1.0000   1.0000   1.0000
     1.0000   1.0000   1.0000   1.0000   1.0000   1.0000   1.0000   1.0000
     1.0000   1.0000   1.0000   1.0000   1.0000   1.0000   1.0000   1.0000
     1.0000   1.0000   1.0000   1.0000   1.0000   1.0000   1.0000   1.0000
     1.0000   1.0000   1.0000   1.0000   1.0000   1.0000   1.0000   1.0000
     1.0000   1.0000   1.0000   1.0000   1.0000   1.0000   1.0000   1.0000
     1.0000   1.0000   1.0000   1.0000   1.0000   1.0000   1.0000   1.0000
     1.0000   1.0000   1.0000   1.0000   1.0000   1.0000   1.0000   1.0000
     1.0000   1.0000   1.0000   1.0000   1.0000   1.0000   1.0000   1.0000
     1.0000   1.0000   1.0000   1.0000   1.0000   1.0000   1.0000   1.0000
     1.0000   1.0000   1.0000   1.0000   1.0000   1.0000   1.0000   1.0000
     1.0000   1.0000   1.0000   1.0000   1.0000   1.0000   1.0000   1.0000
     1.0000   1.0000   1.0000   1.0000   1.0000   1.0000   1.0000   1.0000
     1.0000   1.0000   1.0000   1.0000   1.0000   1.0000   1.0000   1.0000
     1.0000   1.0000   1.0000   1.0000   1.0000   1.0000   1.0000   1.0000
     1.0000   1.0000   1.0000   1.0000   1.0000   1.0000   1.0000   1.0000
     1.0000   1.0000   1.0000   1.0000   1.0000   1.0000   1.0000   1.0000
     1.0000   1.0000   1.0000   1.0000   1.0000   1.0000   1.0000   1.0000
     1.0000   1.0000   1.0000   1.0000   1.0000   1.0000   1.0000   1.0000
     1.0000   1.0000   1.0000   1.0000   1.0000   1.0000   1.0000   1.0000
     1.0000   1.0000   1.0000   1.0000   1.0000   1.0000   1.0000   1.0000
     1.0000   1.0000   1.0000   1.0000   0.9997   0.0002   0.0002   0.0000
     0.0000   0.0000   0.0000   0.0000   0.0000   0.0000   0.0000   0.0000
     0.0000   0.0000   0.0000   0.0000   0.0000   0.0000   0.0000   0.0000
     0.0000   0.0000   0.0000   0.0000   0.0000   0.0000   0.0000   0.0000
     0.0000   0.0000   0.0000   0.0000   0.0000   0.0000   0.0000   0.0000
     0.0000   0.0000   0.0000   0.0000   0.0000   0.0000

          k = 0.0000-0.5774 0.0000 (126288 PWs)   bands (ev):

   -60.3623 -60.3576 -60.3561 -60.3444 -60.3388 -60.3379 -60.3326 -60.3093
   -60.3092 -60.3077 -60.3006 -60.3003 -60.2958 -60.2924 -60.2763 -60.2762
   -34.6464 -34.6296 -34.6176 -34.6142 -34.5936 -34.5897 -34.5694 -34.5582
   -34.5480 -34.5459 -34.5199 -34.4816 -34.4801 -34.4718 -34.4660 -34.4600
   -34.4535 -34.4426 -34.4328 -34.4272 -34.4248 -34.4222 -34.4215 -34.4076
   -34.4058 -34.4053 -34.3986 -34.3970 -34.3962 -34.3908 -34.3898 -34.3895
   -34.3816 -34.3788 -34.3692 -34.3680 -34.3675 -34.3588 -34.3576 -34.3558
   -34.3555 -34.3383 -34.3370 -34.3165 -34.3085 -34.2934 -34.2244 -34.2161
   -13.2682 -13.2232 -12.8734 -12.8172 -12.2448 -12.2298 -12.2245 -12.1605
   -12.0967 -12.0761 -12.0189 -11.9519 -11.9440 -11.8996 -11.7090 -11.7053
   -11.6979 -11.6772 -11.6670 -11.6644 -11.6572 -11.6019 -11.5961 -11.5522
   -11.4817 -11.4613 -11.4574 -11.4417 -11.4378 -11.3618 -11.3346  -4.9261
    -4.8769  -4.8666  -4.8472  -4.7911  -4.7878  -4.7600  -4.7117  -4.6580
    -4.6571  -4.4955  -4.4931  -4.4493  -4.4401  -4.4149  -4.3400  -4.3302
    -4.2998  -4.2453  -4.2297  -4.1470  -4.0337  -3.8099  -3.7352  -3.5679
    -3.5063  -3.4370  -3.4349  -3.3820  -3.3722  -3.3639  -3.3338  -3.3314
    -3.3055  -3.2943  -3.2814  -3.2405  -3.1971  -3.1745  -3.1317  -2.9903
    -2.9606  -2.6688  -2.6613  -2.6331  -2.6330  -2.5995  -2.5897  -2.5704
    -2.5662  -2.5561  -2.5483  -2.5259  -2.5191  -2.4324  -2.4264  -2.3917
    -2.3573  -2.2296  -2.1069  -2.0370  -2.0224  -1.9273  -1.8547  -1.8296
    -1.6925  -1.5101  -1.4975  -1.4371  -1.4067  -1.3997  -1.3981  -1.3745
    -1.3593  -1.3516  -1.3279  -1.3147  -1.2903  -1.2160  -1.1911  -1.1717
    -1.1647  -1.1620  -0.9599  -0.9328  -0.8063  -0.7231  -0.7025  -0.6550
    -0.6354  -0.5961  -0.4404  -0.4125  -0.3564  -0.3186  -0.2962  -0.2715
    -0.2529  -0.2212  -0.0007   0.0321   0.0337   0.0494   0.0686   0.0770
     0.3687   0.3814   0.4001   0.4704   0.5670   1.7432   1.7709   2.3608
     2.4001   2.5677   2.5974   2.6105   2.6591   2.6842   2.7184   2.7397
     2.7592   2.7697   2.8052   2.8389   2.8863   2.9936   3.0036   3.0194
     3.0245   3.0398   3.0472   3.0566   3.0614   3.0746   3.0769   3.1320
     3.1448   3.2055   3.2989   3.3020   3.3257   3.3271   3.3455   3.4980
     3.5166   3.5314   3.6223   3.6621   3.6814   3.7422

     occupation numbers 
     1.0000   1.0000   1.0000   1.0000   1.0000   1.0000   1.0000   1.0000
     1.0000   1.0000   1.0000   1.0000   1.0000   1.0000   1.0000   1.0000
     1.0000   1.0000   1.0000   1.0000   1.0000   1.0000   1.0000   1.0000
     1.0000   1.0000   1.0000   1.0000   1.0000   1.0000   1.0000   1.0000
     1.0000   1.0000   1.0000   1.0000   1.0000   1.0000   1.0000   1.0000
     1.0000   1.0000   1.0000   1.0000   1.0000   1.0000   1.0000   1.0000
     1.0000   1.0000   1.0000   1.0000   1.0000   1.0000   1.0000   1.0000
     1.0000   1.0000   1.0000   1.0000   1.0000   1.0000   1.0000   1.0000
     1.0000   1.0000   1.0000   1.0000   1.0000   1.0000   1.0000   1.0000
     1.0000   1.0000   1.0000   1.0000   1.0000   1.0000   1.0000   1.0000
     1.0000   1.0000   1.0000   1.0000   1.0000   1.0000   1.0000   1.0000
     1.0000   1.0000   1.0000   1.0000   1.0000   1.0000   1.0000   1.0000
     1.0000   1.0000   1.0000   1.0000   1.0000   1.0000   1.0000   1.0000
     1.0000   1.0000   1.0000   1.0000   1.0000   1.0000   1.0000   1.0000
     1.0000   1.0000   1.0000   1.0000   1.0000   1.0000   1.0000   1.0000
     1.0000   1.0000   1.0000   1.0000   1.0000   1.0000   1.0000   1.0000
     1.0000   1.0000   1.0000   1.0000   1.0000   1.0000   1.0000   1.0000
     1.0000   1.0000   1.0000   1.0000   1.0000   1.0000   1.0000   1.0000
     1.0000   1.0000   1.0000   1.0000   1.0000   1.0000   1.0000   1.0000
     1.0000   1.0000   1.0000   1.0000   1.0000   1.0000   1.0000   1.0000
     1.0000   1.0000   1.0000   1.0000   1.0000   1.0000   1.0000   1.0000
     1.0000   1.0000   1.0000   1.0000   1.0000   1.0000   1.0000   1.0000
     1.0000   1.0000   1.0000   1.0000   1.0000   1.0000   1.0000   1.0000
     1.0000   1.0000   1.0000   1.0000   1.0000   1.0000   1.0000   1.0000
     1.0000   1.0000   1.0000   1.0000   1.0000   1.0000   1.0000   1.0000
     1.0000   1.0000   1.0000   1.0000   0.9999   0.0002   0.0001   0.0000
     0.0000   0.0000   0.0000   0.0000   0.0000   0.0000   0.0000   0.0000
     0.0000   0.0000   0.0000   0.0000   0.0000   0.0000   0.0000   0.0000
     0.0000   0.0000   0.0000   0.0000   0.0000   0.0000   0.0000   0.0000
     0.0000   0.0000   0.0000   0.0000   0.0000   0.0000   0.0000   0.0000
     0.0000   0.0000   0.0000   0.0000   0.0000   0.0000

          k = 0.1667 0.2887 0.0000 (126343 PWs)   bands (ev):

   -60.3628 -60.3569 -60.3561 -60.3446 -60.3385 -60.3379 -60.3328 -60.3093
   -60.3092 -60.3078 -60.3003 -60.3001 -60.2960 -60.2925 -60.2763 -60.2761
   -34.6538 -34.6478 -34.6081 -34.6044 -34.5993 -34.5829 -34.5762 -34.5592
   -34.5408 -34.5288 -34.5015 -34.4943 -34.4736 -34.4663 -34.4568 -34.4550
   -34.4536 -34.4424 -34.4386 -34.4342 -34.4306 -34.4280 -34.4259 -34.4247
   -34.4067 -34.4050 -34.4024 -34.3970 -34.3942 -34.3905 -34.3881 -34.3870
   -34.3845 -34.3794 -34.3785 -34.3740 -34.3674 -34.3597 -34.3571 -34.3568
   -34.3473 -34.3445 -34.3357 -34.3080 -34.3029 -34.2941 -34.2205 -34.2158
   -13.3906 -12.9928 -12.9571 -12.6424 -12.5784 -12.3172 -12.3014 -12.1402
   -12.0405 -11.9864 -11.9692 -11.8648 -11.8519 -11.8298 -11.7958 -11.7650
   -11.7475 -11.6992 -11.6915 -11.6272 -11.6004 -11.5888 -11.5377 -11.5299
   -11.5029 -11.4941 -11.4891 -11.4460 -11.4052 -11.3974 -11.3513  -5.0918
    -5.0014  -4.9996  -4.8985  -4.6671  -4.6413  -4.6148  -4.5782  -4.5488
    -4.5417  -4.5222  -4.5085  -4.4894  -4.4492  -4.4423  -4.3858  -4.3613
    -4.2943  -4.2355  -4.2007  -4.0982  -4.0511  -3.9807  -3.8800  -3.7087
    -3.4497  -3.4470  -3.4382  -3.4142  -3.3563  -3.3258  -3.2892  -3.2688
    -3.2316  -3.2255  -3.1866  -3.1742  -3.1342  -3.1164  -3.0548  -2.9770
    -2.9373  -2.8900  -2.8213  -2.7786  -2.6940  -2.6666  -2.6223  -2.5996
    -2.5697  -2.5430  -2.5168  -2.4796  -2.3941  -2.3609  -2.3032  -2.2793
    -2.2581  -2.2348  -2.2135  -2.1449  -2.0558  -1.9559  -1.8712  -1.7763
    -1.7427  -1.7418  -1.6488  -1.6212  -1.5960  -1.4729  -1.3827  -1.3387
    -1.3115  -1.2588  -1.2385  -1.2268  -1.1971  -1.1324  -1.1002  -1.0541
    -0.9981  -0.9639  -0.9503  -0.9187  -0.8279  -0.7974  -0.7368  -0.6813
    -0.6215  -0.5905  -0.5449  -0.5250  -0.3539  -0.3402  -0.2297  -0.1988
    -0.1391  -0.1352  -0.1151  -0.0994  -0.0508   0.0628   0.1203   0.1520
     0.2124   0.2212   0.3425   0.4443   0.6324   1.7395   1.7632   2.4040
     2.5922   2.6055   2.6287   2.6679   2.6822   2.7090   2.7231   2.7433
     2.7673   2.7761   2.8096   2.8330   2.8575   2.8813   2.9236   2.9807
     3.0057   3.0427   3.0687   3.1005   3.1361   3.1527   3.1700   3.1802
     3.2165   3.2349   3.2934   3.3025   3.3037   3.3648   3.3840   3.4643
     3.5311   3.5512   3.6334   3.6847   3.7077   3.7216

     occupation numbers 
     1.0000   1.0000   1.0000   1.0000   1.0000   1.0000   1.0000   1.0000
     1.0000   1.0000   1.0000   1.0000   1.0000   1.0000   1.0000   1.0000
     1.0000   1.0000   1.0000   1.0000   1.0000   1.0000   1.0000   1.0000
     1.0000   1.0000   1.0000   1.0000   1.0000   1.0000   1.0000   1.0000
     1.0000   1.0000   1.0000   1.0000   1.0000   1.0000   1.0000   1.0000
     1.0000   1.0000   1.0000   1.0000   1.0000   1.0000   1.0000   1.0000
     1.0000   1.0000   1.0000   1.0000   1.0000   1.0000   1.0000   1.0000
     1.0000   1.0000   1.0000   1.0000   1.0000   1.0000   1.0000   1.0000
     1.0000   1.0000   1.0000   1.0000   1.0000   1.0000   1.0000   1.0000
     1.0000   1.0000   1.0000   1.0000   1.0000   1.0000   1.0000   1.0000
     1.0000   1.0000   1.0000   1.0000   1.0000   1.0000   1.0000   1.0000
     1.0000   1.0000   1.0000   1.0000   1.0000   1.0000   1.0000   1.0000
     1.0000   1.0000   1.0000   1.0000   1.0000   1.0000   1.0000   1.0000
     1.0000   1.0000   1.0000   1.0000   1.0000   1.0000   1.0000   1.0000
     1.0000   1.0000   1.0000   1.0000   1.0000   1.0000   1.0000   1.0000
     1.0000   1.0000   1.0000   1.0000   1.0000   1.0000   1.0000   1.0000
     1.0000   1.0000   1.0000   1.0000   1.0000   1.0000   1.0000   1.0000
     1.0000   1.0000   1.0000   1.0000   1.0000   1.0000   1.0000   1.0000
     1.0000   1.0000   1.0000   1.0000   1.0000   1.0000   1.0000   1.0000
     1.0000   1.0000   1.0000   1.0000   1.0000   1.0000   1.0000   1.0000
     1.0000   1.0000   1.0000   1.0000   1.0000   1.0000   1.0000   1.0000
     1.0000   1.0000   1.0000   1.0000   1.0000   1.0000   1.0000   1.0000
     1.0000   1.0000   1.0000   1.0000   1.0000   1.0000   1.0000   1.0000
     1.0000   1.0000   1.0000   1.0000   1.0000   1.0000   1.0000   1.0000
     1.0000   1.0000   1.0000   1.0000   1.0000   1.0000   1.0000   1.0000
     1.0000   1.0000   1.0000   1.0000   0.9996   0.0002   0.0002   0.0000
     0.0000   0.0000   0.0000   0.0000   0.0000   0.0000   0.0000   0.0000
     0.0000   0.0000   0.0000   0.0000   0.0000   0.0000   0.0000   0.0000
     0.0000   0.0000   0.0000   0.0000   0.0000   0.0000   0.0000   0.0000
     0.0000   0.0000   0.0000   0.0000   0.0000   0.0000   0.0000   0.0000
     0.0000   0.0000   0.0000   0.0000   0.0000   0.0000

          k = 0.1667 0.4811 0.0000 (126406 PWs)   bands (ev):

   -60.3624 -60.3575 -60.3562 -60.3444 -60.3388 -60.3379 -60.3326 -60.3093
   -60.3091 -60.3077 -60.3005 -60.3003 -60.2958 -60.2924 -60.2763 -60.2761
   -34.6461 -34.6333 -34.6153 -34.6059 -34.6005 -34.5871 -34.5732 -34.5615
   -34.5559 -34.5313 -34.5171 -34.4976 -34.4726 -34.4717 -34.4594 -34.4550
   -34.4491 -34.4430 -34.4414 -34.4330 -34.4275 -34.4244 -34.4208 -34.4083
   -34.4067 -34.4047 -34.4014 -34.3977 -34.3916 -34.3901 -34.3874 -34.3836
   -34.3800 -34.3786 -34.3728 -34.3712 -34.3641 -34.3579 -34.3575 -34.3559
   -34.3540 -34.3424 -34.3373 -34.3162 -34.3072 -34.2943 -34.2239 -34.2165
   -13.2966 -13.1520 -13.0134 -12.6501 -12.4321 -12.2433 -12.1623 -12.1146
   -12.0843 -12.0504 -12.0061 -11.9765 -11.8926 -11.8490 -11.8118 -11.7702
   -11.7509 -11.6864 -11.6425 -11.6230 -11.6092 -11.5816 -11.5696 -11.5465
   -11.5070 -11.5002 -11.4749 -11.4214 -11.4082 -11.3767 -11.3299  -4.9617
    -4.8888  -4.8811  -4.7958  -4.7829  -4.7559  -4.7140  -4.6826  -4.6424
    -4.6254  -4.6031  -4.5559  -4.5028  -4.4862  -4.4141  -4.3647  -4.3486
    -4.2731  -4.2528  -4.1044  -4.0550  -3.9667  -3.8754  -3.7803  -3.6588
    -3.5747  -3.4182  -3.4075  -3.3835  -3.3531  -3.3407  -3.3244  -3.3086
    -3.2957  -3.2795  -3.2671  -3.2329  -3.2272  -3.1427  -3.1026  -3.0048
    -2.9163  -2.8206  -2.7437  -2.6960  -2.6609  -2.6280  -2.5987  -2.5757
    -2.5452  -2.5136  -2.4992  -2.4794  -2.4509  -2.4255  -2.3945  -2.3781
    -2.3002  -2.2566  -2.1576  -2.0324  -1.9997  -1.8637  -1.8144  -1.7713
    -1.6954  -1.6731  -1.6045  -1.4986  -1.4794  -1.4487  -1.3967  -1.3610
    -1.3542  -1.3379  -1.3043  -1.2621  -1.2208  -1.2090  -1.1624  -1.1221
    -1.0867  -1.0311  -0.9943  -0.9686  -0.8910  -0.7982  -0.7619  -0.6897
    -0.5708  -0.5501  -0.4533  -0.4341  -0.3295  -0.3034  -0.2619  -0.2427
    -0.2221  -0.1890  -0.1102  -0.0950  -0.0553   0.1066   0.1462   0.2156
     0.2867   0.3576   0.4429   0.4647   0.5743   1.7331   1.7821   2.2794
     2.5263   2.5348   2.5985   2.6271   2.6657   2.6840   2.7088   2.7219
     2.7620   2.7896   2.7979   2.8319   2.8889   2.9547   2.9837   2.9990
     3.0237   3.0417   3.0591   3.0726   3.0847   3.1050   3.1116   3.1234
     3.1570   3.1679   3.1943   3.2385   3.3045   3.3445   3.4129   3.4481
     3.5300   3.5848   3.6737   3.7137   3.7551   3.7663

     occupation numbers 
     1.0000   1.0000   1.0000   1.0000   1.0000   1.0000   1.0000   1.0000
     1.0000   1.0000   1.0000   1.0000   1.0000   1.0000   1.0000   1.0000
     1.0000   1.0000   1.0000   1.0000   1.0000   1.0000   1.0000   1.0000
     1.0000   1.0000   1.0000   1.0000   1.0000   1.0000   1.0000   1.0000
     1.0000   1.0000   1.0000   1.0000   1.0000   1.0000   1.0000   1.0000
     1.0000   1.0000   1.0000   1.0000   1.0000   1.0000   1.0000   1.0000
     1.0000   1.0000   1.0000   1.0000   1.0000   1.0000   1.0000   1.0000
     1.0000   1.0000   1.0000   1.0000   1.0000   1.0000   1.0000   1.0000
     1.0000   1.0000   1.0000   1.0000   1.0000   1.0000   1.0000   1.0000
     1.0000   1.0000   1.0000   1.0000   1.0000   1.0000   1.0000   1.0000
     1.0000   1.0000   1.0000   1.0000   1.0000   1.0000   1.0000   1.0000
     1.0000   1.0000   1.0000   1.0000   1.0000   1.0000   1.0000   1.0000
     1.0000   1.0000   1.0000   1.0000   1.0000   1.0000   1.0000   1.0000
     1.0000   1.0000   1.0000   1.0000   1.0000   1.0000   1.0000   1.0000
     1.0000   1.0000   1.0000   1.0000   1.0000   1.0000   1.0000   1.0000
     1.0000   1.0000   1.0000   1.0000   1.0000   1.0000   1.0000   1.0000
     1.0000   1.0000   1.0000   1.0000   1.0000   1.0000   1.0000   1.0000
     1.0000   1.0000   1.0000   1.0000   1.0000   1.0000   1.0000   1.0000
     1.0000   1.0000   1.0000   1.0000   1.0000   1.0000   1.0000   1.0000
     1.0000   1.0000   1.0000   1.0000   1.0000   1.0000   1.0000   1.0000
     1.0000   1.0000   1.0000   1.0000   1.0000   1.0000   1.0000   1.0000
     1.0000   1.0000   1.0000   1.0000   1.0000   1.0000   1.0000   1.0000
     1.0000   1.0000   1.0000   1.0000   1.0000   1.0000   1.0000   1.0000
     1.0000   1.0000   1.0000   1.0000   1.0000   1.0000   1.0000   1.0000
     1.0000   1.0000   1.0000   1.0000   1.0000   1.0000   1.0000   1.0000
     1.0000   1.0000   1.0000   1.0000   0.9998   0.0002   0.0001   0.0000
     0.0000   0.0000   0.0000   0.0000   0.0000   0.0000   0.0000   0.0000
     0.0000   0.0000   0.0000   0.0000   0.0000   0.0000   0.0000   0.0000
     0.0000   0.0000   0.0000   0.0000   0.0000   0.0000   0.0000   0.0000
     0.0000   0.0000   0.0000   0.0000   0.0000   0.0000   0.0000   0.0000
     0.0000   0.0000   0.0000   0.0000   0.0000   0.0000

          k = 0.3333 0.5774 0.0000 (126429 PWs)   bands (ev):

   -60.3622 -60.3577 -60.3562 -60.3443 -60.3388 -60.3379 -60.3325 -60.3093
   -60.3091 -60.3077 -60.3006 -60.3005 -60.2958 -60.2924 -60.2763 -60.2762
   -34.6415 -34.6295 -34.6167 -34.6038 -34.5971 -34.5932 -34.5825 -34.5620
   -34.5565 -34.5255 -34.5224 -34.5036 -34.4711 -34.4684 -34.4593 -34.4569
   -34.4568 -34.4412 -34.4327 -34.4277 -34.4263 -34.4239 -34.4235 -34.4218
   -34.4076 -34.4041 -34.3977 -34.3920 -34.3915 -34.3879 -34.3876 -34.3829
   -34.3791 -34.3763 -34.3719 -34.3642 -34.3620 -34.3594 -34.3585 -34.3570
   -34.3555 -34.3438 -34.3332 -34.3241 -34.3073 -34.2951 -34.2245 -34.2172
   -13.2026 -13.1906 -13.1304 -12.4786 -12.4739 -12.3915 -12.0810 -12.0589
   -12.0499 -11.9917 -11.9884 -11.9638 -11.9535 -11.9526 -11.8347 -11.7854
   -11.7756 -11.7216 -11.6029 -11.5945 -11.5651 -11.5650 -11.5617 -11.5560
   -11.5520 -11.5382 -11.4703 -11.3977 -11.3942 -11.3901 -11.3215  -4.8534
    -4.7971  -4.7960  -4.7840  -4.7779  -4.7636  -4.7573  -4.7564  -4.6888
    -4.6847  -4.6779  -4.6090  -4.5972  -4.4883  -4.4387  -4.3692  -4.3155
    -4.2614  -4.2612  -3.9520  -3.9328  -3.8683  -3.8532  -3.8522  -3.7563
    -3.6956  -3.4415  -3.3688  -3.3687  -3.3642  -3.3535  -3.3251  -3.3038
    -3.2959  -3.2854  -3.2811  -3.2429  -3.1793  -3.1791  -3.0444  -3.0212
    -2.9571  -2.8194  -2.7382  -2.6326  -2.6236  -2.6015  -2.5924  -2.5797
    -2.5712  -2.5575  -2.5323  -2.5181  -2.5180  -2.5116  -2.4518  -2.3823
    -2.1661  -2.1646  -2.0498  -2.0169  -2.0145  -1.8003  -1.7748  -1.7482
    -1.7358  -1.6818  -1.5968  -1.5378  -1.5049  -1.4921  -1.4763  -1.4211
    -1.3381  -1.3046  -1.2658  -1.2206  -1.1828  -1.0795  -1.0791  -1.0708
    -1.0622  -1.0566  -1.0511  -1.0510  -1.0398  -1.0237  -0.7727  -0.6597
    -0.5537  -0.4857  -0.4482  -0.4046  -0.2825  -0.2451  -0.2433  -0.2210
    -0.2169  -0.2070  -0.1794  -0.1623  -0.1210   0.1605   0.1720   0.2522
     0.3322   0.3823   0.4283   0.5132   0.5447   1.7248   1.7960   2.2132
     2.4948   2.5759   2.5821   2.6371   2.6533   2.6566   2.6983   2.7263
     2.7430   2.7923   2.7953   2.8191   2.9571   2.9640   2.9879   2.9989
     3.0383   3.0464   3.0465   3.0635   3.0664   3.0685   3.0792   3.1117
     3.1318   3.1466   3.1864   3.2117   3.2526   3.2925   3.3728   3.5496
     3.5544   3.6580   3.6793   3.6841   3.7706   3.8111

     occupation numbers 
     1.0000   1.0000   1.0000   1.0000   1.0000   1.0000   1.0000   1.0000
     1.0000   1.0000   1.0000   1.0000   1.0000   1.0000   1.0000   1.0000
     1.0000   1.0000   1.0000   1.0000   1.0000   1.0000   1.0000   1.0000
     1.0000   1.0000   1.0000   1.0000   1.0000   1.0000   1.0000   1.0000
     1.0000   1.0000   1.0000   1.0000   1.0000   1.0000   1.0000   1.0000
     1.0000   1.0000   1.0000   1.0000   1.0000   1.0000   1.0000   1.0000
     1.0000   1.0000   1.0000   1.0000   1.0000   1.0000   1.0000   1.0000
     1.0000   1.0000   1.0000   1.0000   1.0000   1.0000   1.0000   1.0000
     1.0000   1.0000   1.0000   1.0000   1.0000   1.0000   1.0000   1.0000
     1.0000   1.0000   1.0000   1.0000   1.0000   1.0000   1.0000   1.0000
     1.0000   1.0000   1.0000   1.0000   1.0000   1.0000   1.0000   1.0000
     1.0000   1.0000   1.0000   1.0000   1.0000   1.0000   1.0000   1.0000
     1.0000   1.0000   1.0000   1.0000   1.0000   1.0000   1.0000   1.0000
     1.0000   1.0000   1.0000   1.0000   1.0000   1.0000   1.0000   1.0000
     1.0000   1.0000   1.0000   1.0000   1.0000   1.0000   1.0000   1.0000
     1.0000   1.0000   1.0000   1.0000   1.0000   1.0000   1.0000   1.0000
     1.0000   1.0000   1.0000   1.0000   1.0000   1.0000   1.0000   1.0000
     1.0000   1.0000   1.0000   1.0000   1.0000   1.0000   1.0000   1.0000
     1.0000   1.0000   1.0000   1.0000   1.0000   1.0000   1.0000   1.0000
     1.0000   1.0000   1.0000   1.0000   1.0000   1.0000   1.0000   1.0000
     1.0000   1.0000   1.0000   1.0000   1.0000   1.0000   1.0000   1.0000
     1.0000   1.0000   1.0000   1.0000   1.0000   1.0000   1.0000   1.0000
     1.0000   1.0000   1.0000   1.0000   1.0000   1.0000   1.0000   1.0000
     1.0000   1.0000   1.0000   1.0000   1.0000   1.0000   1.0000   1.0000
     1.0000   1.0000   1.0000   1.0000   1.0000   1.0000   1.0000   1.0000
     1.0000   1.0000   1.0000   0.9999   0.9999   0.0003   0.0001   0.0000
     0.0000   0.0000   0.0000   0.0000   0.0000   0.0000   0.0000   0.0000
     0.0000   0.0000   0.0000   0.0000   0.0000   0.0000   0.0000   0.0000
     0.0000   0.0000   0.0000   0.0000   0.0000   0.0000   0.0000   0.0000
     0.0000   0.0000   0.0000   0.0000   0.0000   0.0000   0.0000   0.0000
     0.0000   0.0000   0.0000   0.0000   0.0000   0.0000

     the Fermi energy is     1.1663 ev

!    total energy              =   -2979.42701804 Ry
     estimated scf accuracy    <          5.5E-09 Ry
     smearing contrib. (-TS)   =      -0.00006952 Ry
     internal energy E=F+TS    =   -2979.42694852 Ry

     The total energy is F=E-TS. E is the sum of the following terms:
     one-electron contribution =  -11135.77693933 Ry
     hartree contribution      =    5595.53612092 Ry
     xc contribution           =    -571.48132771 Ry
     ewald contribution        =    3132.29519761 Ry

     total magnetization       =     0.00 Bohr mag/cell
     absolute magnetization    =     0.00 Bohr mag/cell

     convergence has been achieved in   8 iterations

     negative rho (up, down):  1.432E-03 1.432E-03

     Forces acting on atoms (cartesian axes, Ry/au):

     atom    1 type  1   force =     0.00013550    0.00013865    0.00008586
     atom    2 type  1   force =     0.00018783    0.00004802    0.00008586
     atom    3 type  1   force =     0.00000000   -0.00001913    0.00039943
     atom    4 type  1   force =    -0.00001656    0.00000956    0.00039943
     atom    5 type  1   force =    -0.00000000   -0.00060124   -0.00107795
     atom    6 type  1   force =    -0.00097844   -0.00056490    0.00040223
     atom    7 type  1   force =    -0.00052069    0.00030062   -0.00107795
     atom    8 type  1   force =     0.00001656    0.00000956    0.00039943
     atom    9 type  1   force =    -0.00013550    0.00013865    0.00008586
     atom   10 type  1   force =     0.00097844   -0.00056490    0.00040223
     atom   11 type  1   force =     0.00000000    0.00112981    0.00040223
     atom   12 type  1   force =     0.00005232   -0.00018668    0.00008586
     atom   13 type  1   force =     0.00000000   -0.00000000    0.00074246
     atom   14 type  1   force =    -0.00018783    0.00004802    0.00008586
     atom   15 type  1   force =     0.00052069    0.00030062   -0.00107795
     atom   16 type  1   force =    -0.00005232   -0.00018668    0.00008586
     atom   17 type  2   force =    -0.00008837   -0.00005102    0.00045515
     atom   18 type  2   force =     0.00000000    0.00026716    0.00023104
     atom   19 type  2   force =     0.00044166    0.00025499    0.00030087
     atom   20 type  2   force =     0.00023136   -0.00013358    0.00023104
     atom   21 type  2   force =     0.00040112    0.00068298   -0.00040336
     atom   22 type  2   force =     0.00079203    0.00000589   -0.00040336
     atom   23 type  2   force =    -0.00044166    0.00025499    0.00030087
     atom   24 type  2   force =    -0.00000000   -0.00050998    0.00030087
     atom   25 type  2   force =    -0.00040112    0.00068298   -0.00040336
     atom   26 type  2   force =     0.00039092   -0.00068887   -0.00040336
     atom   27 type  2   force =    -0.00023136   -0.00013358    0.00023104
     atom   28 type  2   force =     0.00008837   -0.00005102    0.00045515
     atom   29 type  2   force =    -0.00079203    0.00000589   -0.00040336
     atom   30 type  2   force =    -0.00039092   -0.00068887   -0.00040336
     atom   31 type  2   force =     0.00000000    0.00010204    0.00045515
     atom   32 type  2   force =    -0.00109385   -0.00063153    0.00035625
     atom   33 type  2   force =     0.00000000    0.00040884   -0.00068610
     atom   34 type  2   force =     0.00023489    0.00013561    0.00046978
     atom   35 type  2   force =     0.00035407   -0.00020442   -0.00068610
     atom   36 type  2   force =    -0.00075907   -0.00059874   -0.00029034
     atom   37 type  2   force =    -0.00089806   -0.00035800   -0.00029034
     atom   38 type  2   force =    -0.00023489    0.00013561    0.00046978
     atom   39 type  2   force =     0.00000000   -0.00027122    0.00046978
     atom   40 type  2   force =     0.00075907   -0.00059874   -0.00029034
     atom   41 type  2   force =     0.00000000    0.00000000    0.00035252
     atom   42 type  2   force =    -0.00013899    0.00095674   -0.00029034
     atom   43 type  2   force =    -0.00035407   -0.00020442   -0.00068610
     atom   44 type  2   force =     0.00109385   -0.00063153    0.00035625
     atom   45 type  2   force =     0.00089806   -0.00035800   -0.00029034
     atom   46 type  2   force =     0.00013899    0.00095674   -0.00029034
     atom   47 type  2   force =     0.00000000    0.00126307    0.00035625
     The non-local contrib.  to forces
     atom    1 type  1   force =    -0.00103236    0.00602267    0.00065611
     atom    2 type  1   force =     0.00469960   -0.00390539    0.00065611
     atom    3 type  1   force =     0.00000000    0.00091925   -0.00104193
     atom    4 type  1   force =     0.00079609   -0.00045962   -0.00104193
     atom    5 type  1   force =     0.00000000   -0.00409277    0.00315831
     atom    6 type  1   force =     0.01307386    0.00754819   -0.03087580
     atom    7 type  1   force =    -0.00354444    0.00204638    0.00315831
     atom    8 type  1   force =    -0.00079609   -0.00045962   -0.00104193
     atom    9 type  1   force =     0.00103236    0.00602267    0.00065611
     atom   10 type  1   force =    -0.01307386    0.00754819   -0.03087580
     atom   11 type  1   force =    -0.00000000   -0.01509639   -0.03087580
     atom   12 type  1   force =     0.00573196   -0.00211728    0.00065611
     atom   13 type  1   force =     0.00000000    0.00000000   -0.00180864
     atom   14 type  1   force =    -0.00469960   -0.00390539    0.00065611
     atom   15 type  1   force =     0.00354444    0.00204638    0.00315831
     atom   16 type  1   force =    -0.00573196   -0.00211728    0.00065611
     atom   17 type  2   force =     0.00080936    0.00046728   -0.28351569
     atom   18 type  2   force =     0.00000000   -0.00261852   -0.28103837
     atom   19 type  2   force =    -0.00036367   -0.00020996   -0.28363686
     atom   20 type  2   force =    -0.00226771    0.00130926   -0.28103837
     atom   21 type  2   force =    -0.00941745   -0.00760157   -0.26832591
     atom   22 type  2   force =    -0.01129187   -0.00435497   -0.26832591
     atom   23 type  2   force =     0.00036367   -0.00020996   -0.28363686
     atom   24 type  2   force =     0.00000000    0.00041993   -0.28363686
     atom   25 type  2   force =     0.00941745   -0.00760157   -0.26832591
     atom   26 type  2   force =    -0.00187442    0.01195654   -0.26832591
     atom   27 type  2   force =     0.00226771    0.00130926   -0.28103837
     atom   28 type  2   force =    -0.00080936    0.00046728   -0.28351569
     atom   29 type  2   force =     0.01129187   -0.00435497   -0.26832591
     atom   30 type  2   force =     0.00187442    0.01195654   -0.26832591
     atom   31 type  2   force =     0.00000000   -0.00093457   -0.28351569
     atom   32 type  2   force =    -0.00024617   -0.00014212    0.28065689
     atom   33 type  2   force =     0.00000000    0.00348520    0.28117903
     atom   34 type  2   force =     0.00065838    0.00038011    0.28056865
     atom   35 type  2   force =     0.00301827   -0.00174260    0.28117903
     atom   36 type  2   force =     0.00316409    0.00167075    0.28079059
     atom   37 type  2   force =     0.00302896    0.00190481    0.28079059
     atom   38 type  2   force =    -0.00065838    0.00038011    0.28056865
     atom   39 type  2   force =     0.00000000   -0.00076023    0.28056865
     atom   40 type  2   force =    -0.00316409    0.00167075    0.28079059
     atom   41 type  2   force =     0.00000000    0.00000000    0.28088442
     atom   42 type  2   force =    -0.00013513   -0.00357556    0.28079059
     atom   43 type  2   force =    -0.00301827   -0.00174260    0.28117903
     atom   44 type  2   force =     0.00024617   -0.00014212    0.28065689
     atom   45 type  2   force =    -0.00302896    0.00190481    0.28079059
     atom   46 type  2   force =     0.00013513   -0.00357556    0.28079059
     atom   47 type  2   force =     0.00000000    0.00028425    0.28065689
     The ionic contribution  to forces
     atom    1 type  1   force =     0.69198048    0.31129134    1.53511523
     atom    2 type  1   force =     0.61555666    0.44366115    1.53511187
     atom    3 type  1   force =     0.00003140    0.15149586    0.61707667
     atom    4 type  1   force =     0.13121670   -0.07575943    0.61707784
     atom    5 type  1   force =     0.00001842    0.52609019    0.57963051
     atom    6 type  1   force =     3.42217745    1.97580129    3.56734488
     atom    7 type  1   force =     0.45555885   -0.26302183    0.57962838
     atom    8 type  1   force =    -0.13118640   -0.07577161    0.61708009
     atom    9 type  1   force =    -0.69198596    0.31130676    1.53511152
     atom   10 type  1   force =    -3.42211147    1.97578585    3.56733946
     atom   11 type  1   force =     0.00001258   -3.95159858    3.56734812
     atom   12 type  1   force =    -0.07644803   -0.75491511    1.53510912
     atom   13 type  1   force =    -0.00001794    0.00001906    1.06283145
     atom   14 type  1   force =    -0.61561131    0.44364594    1.53511084
     atom   15 type  1   force =    -0.45560928   -0.26308980    0.57963349
     atom   16 type  1   force =     0.07642249   -0.75493016    1.53510601
     atom   17 type  2   force =     0.28362832    0.16374814   32.57901584
     atom   18 type  2   force =     0.00000342    0.06732203   32.46894706
     atom   19 type  2   force =    -0.22852584   -0.13194434   32.19357772
     atom   20 type  2   force =     0.05829499   -0.03365470   32.46896564
     atom   21 type  2   force =     0.56162943    1.25676247   32.44310284
     atom   22 type  2   force =     1.36920194   -0.14198877   32.44309576
     atom   23 type  2   force =     0.22852822   -0.13194625   32.19356145
     atom   24 type  2   force =     0.00000270    0.26387583   32.19357644
     atom   25 type  2   force =    -0.56162196    1.25678153   32.44309417
     atom   26 type  2   force =     0.80757046   -1.11477185   32.44309578
     atom   27 type  2   force =    -0.05829919   -0.03366199   32.46894526
     atom   28 type  2   force =    -0.28363024    0.16375129   32.57900689
     atom   29 type  2   force =    -1.36921515   -0.14200138   32.44308156
     atom   30 type  2   force =    -0.80756992   -1.11477633   32.44309819
     atom   31 type  2   force =    -0.00000085   -0.32749963   32.57902284
     atom   32 type  2   force =    -0.05711082   -0.03297565  -31.93111781
     atom   33 type  2   force =     0.00000312   -0.02172073  -31.90711728
     atom   34 type  2   force =    -0.00046977   -0.00027861  -31.92139448
     atom   35 type  2   force =    -0.01881868    0.01086235  -31.90714092
     atom   36 type  2   force =    -0.09325853   -0.18392040  -31.96719898
     atom   37 type  2   force =    -0.20591213    0.01120317  -31.96719140
     atom   38 type  2   force =     0.00047700   -0.00028072  -31.92137884
     atom   39 type  2   force =     0.00000320    0.00054389  -31.92139311
     atom   40 type  2   force =     0.09326429   -0.18389727  -31.96719302
     atom   41 type  2   force =     0.00001389   -0.00000266  -31.86680550
     atom   42 type  2   force =    -0.11265823    0.17272113  -31.96719172
     atom   43 type  2   force =     0.01881464    0.01085917  -31.90711544
     atom   44 type  2   force =     0.05710680   -0.03297303  -31.93110394
     atom   45 type  2   force =     0.20589226    0.01118880  -31.96718042
     atom   46 type  2   force =     0.11265339    0.17271657  -31.96719494
     atom   47 type  2   force =    -0.00000140    0.06594701  -31.93112512
     The local contribution  to forces
     atom    1 type  1   force =    -0.69115721   -0.31690682   -1.53576594
     atom    2 type  1   force =    -0.62014040   -0.44005506   -1.53576555
     atom    3 type  1   force =     0.00013499   -0.15248085   -0.61562139
     atom    4 type  1   force =    -0.13193682    0.07608937   -0.61562079
     atom    5 type  1   force =     0.00006546   -0.52250388   -0.58349172
     atom    6 type  1   force =    -3.43588320   -1.98364127   -3.53921170
     atom    7 type  1   force =    -0.45259861    0.26124859   -0.58349190
     atom    8 type  1   force =     0.13206832    0.07608956   -0.61562124
     atom    9 type  1   force =     0.69115191   -0.31704408   -1.53576517
     atom   10 type  1   force =     3.43601802   -1.98377982   -3.53921830
     atom   11 type  1   force =    -0.00007002    3.96727529   -3.53920518
     atom   12 type  1   force =     0.07094691    0.75695295   -1.53576539
     atom   13 type  1   force =    -0.00014151    0.00004726   -1.06038192
     atom   14 type  1   force =     0.61999611   -0.44005496   -1.53576467
     atom   15 type  1   force =     0.45245399    0.26097219   -0.58348966
     atom   16 type  1   force =    -0.07109071    0.75681379   -1.53576516
     atom   17 type  2   force =    -0.28448275   -0.16425655  -32.30962138
     atom   18 type  2   force =    -0.00000009   -0.06457525  -32.20215066
     atom   19 type  2   force =     0.22929509    0.13238377  -31.92427671
     atom   20 type  2   force =    -0.05592870    0.03229316  -32.20216718
     atom   21 type  2   force =    -0.55240261   -1.24892447  -32.18890752
     atom   22 type  2   force =    -1.35779659    0.14606861  -32.18889155
     atom   23 type  2   force =    -0.22930252    0.13238433  -31.92427662
     atom   24 type  2   force =    -0.00000006   -0.26477712  -31.92427648
     atom   25 type  2   force =     0.55240176   -1.24889963  -32.18892310
     atom   26 type  2   force =    -0.80538970    1.10284650  -32.18889133
     atom   27 type  2   force =     0.05592185    0.03228648  -32.20215062
     atom   28 type  2   force =     0.28448246   -0.16424874  -32.30962139
     atom   29 type  2   force =     1.35778067    0.14606157  -32.18892332
     atom   30 type  2   force =     0.80539766    1.10284656  -32.18890744
     atom   31 type  2   force =     0.00000342    0.32849654  -32.30962158
     atom   32 type  2   force =     0.05622864    0.03245366   31.66521225
     atom   33 type  2   force =     0.00000023    0.01884904   31.63970929
     atom   34 type  2   force =     0.00010462    0.00005613   31.65576237
     atom   35 type  2   force =     0.01631804   -0.00942433   31.63974244
     atom   36 type  2   force =     0.08949238    0.18167476   31.70053713
     atom   37 type  2   force =     0.20208327   -0.01333357   31.70052062
     atom   38 type  2   force =    -0.00010412    0.00005613   31.65576233
     atom   39 type  2   force =     0.00000023   -0.00011944   31.65576214
     atom   40 type  2   force =    -0.08949152    0.18169649   31.70055399
     atom   41 type  2   force =     0.00001096   -0.00000642   31.60054921
     atom   42 type  2   force =     0.11258741   -0.16834706   31.70052010
     atom   43 type  2   force =    -0.01632493   -0.00942435   31.63970878
     atom   44 type  2   force =    -0.05622811    0.03246101   31.66519544
     atom   45 type  2   force =    -0.20209716   -0.01334124   31.70055407
     atom   46 type  2   force =    -0.11258697   -0.16834707   31.70053679
     atom   47 type  2   force =     0.00000395   -0.06492800   31.66521200
     The core correction contribution to forces
     atom    1 type  1   force =     0.00031036   -0.00023023    0.00009214
     atom    2 type  1   force =    -0.00004363    0.00038468    0.00009214
     atom    3 type  1   force =    -0.00000167    0.00002940   -0.00000682
     atom    4 type  1   force =     0.00002325   -0.00001179   -0.00000681
     atom    5 type  1   force =    -0.00000085   -0.00014467   -0.00037432
     atom    6 type  1   force =    -0.00029460   -0.00016996    0.00315627
     atom    7 type  1   force =    -0.00012494    0.00007363   -0.00037436
     atom    8 type  1   force =    -0.00002496   -0.00001175   -0.00000680
     atom    9 type  1   force =    -0.00031048   -0.00022858    0.00009209
     atom   10 type  1   force =     0.00029281   -0.00016834    0.00315621
     atom   11 type  1   force =     0.00000071    0.00034244    0.00315622
     atom   12 type  1   force =    -0.00035325   -0.00015191    0.00009203
     atom   13 type  1   force =     0.00000152    0.00000024    0.00010427
     atom   14 type  1   force =     0.00004510    0.00038470    0.00009210
     atom   15 type  1   force =     0.00012641    0.00007679   -0.00037440
     atom   16 type  1   force =     0.00035474   -0.00015036    0.00009204
     atom   17 type  2   force =    -0.00003795   -0.00001983    0.01459199
     atom   18 type  2   force =     0.00000008    0.00017398    0.01447539
     atom   19 type  2   force =     0.00005344    0.00003176    0.01462143
     atom   20 type  2   force =     0.00015050   -0.00008641    0.01447630
     atom   21 type  2   force =     0.00060455    0.00043538    0.01373851
     atom   22 type  2   force =     0.00067826    0.00030716    0.01373762
     atom   23 type  2   force =    -0.00005240    0.00003176    0.01462142
     atom   24 type  2   force =     0.00000008   -0.00005977    0.01462141
     atom   25 type  2   force =    -0.00060438    0.00043282    0.01373944
     atom   26 type  2   force =     0.00007337   -0.00073886    0.01373763
     atom   27 type  2   force =    -0.00014951   -0.00008552    0.01447539
     atom   28 type  2   force =     0.00003812   -0.00002068    0.01459199
     atom   29 type  2   force =    -0.00067640    0.00030802    0.01373946
     atom   30 type  2   force =    -0.00007404   -0.00073887    0.01373854
     atom   31 type  2   force =    -0.00000035    0.00004418    0.01459199
     atom   32 type  2   force =     0.00003184    0.00002049   -0.01440503
     atom   33 type  2   force =     0.00000010   -0.00017063   -0.01445724
     atom   34 type  2   force =    -0.00003524   -0.00001893   -0.01445311
     atom   35 type  2   force =    -0.00014790    0.00008682   -0.01445907
     atom   36 type  2   force =    -0.00014055   -0.00002638   -0.01442704
     atom   37 type  2   force =    -0.00009420   -0.00010723   -0.01442612
     atom   38 type  2   force =     0.00003545   -0.00001894   -0.01445310
     atom   39 type  2   force =     0.00000010    0.00004172   -0.01445309
     atom   40 type  2   force =     0.00014076   -0.00002891   -0.01442796
     atom   41 type  2   force =    -0.00000118    0.00000181   -0.01424130
     atom   42 type  2   force =     0.00004684    0.00013737   -0.01442614
     atom   43 type  2   force =     0.00014894    0.00008683   -0.01445725
     atom   44 type  2   force =    -0.00003165    0.00001966   -0.01440413
     atom   45 type  2   force =     0.00009609   -0.00010640   -0.01442797
     atom   46 type  2   force =    -0.00004665    0.00013737   -0.01442706
     atom   47 type  2   force =    -0.00000032   -0.00003554   -0.01440506
     The Hubbard contrib.    to forces
     atom    1 type  1   force =     0.00000000    0.00000000    0.00000000
     atom    2 type  1   force =     0.00000000    0.00000000    0.00000000
     atom    3 type  1   force =     0.00000000    0.00000000    0.00000000
     atom    4 type  1   force =     0.00000000    0.00000000    0.00000000
     atom    5 type  1   force =     0.00000000    0.00000000    0.00000000
     atom    6 type  1   force =     0.00000000    0.00000000    0.00000000
     atom    7 type  1   force =     0.00000000    0.00000000    0.00000000
     atom    8 type  1   force =     0.00000000    0.00000000    0.00000000
     atom    9 type  1   force =     0.00000000    0.00000000    0.00000000
     atom   10 type  1   force =     0.00000000    0.00000000    0.00000000
     atom   11 type  1   force =     0.00000000    0.00000000    0.00000000
     atom   12 type  1   force =     0.00000000    0.00000000    0.00000000
     atom   13 type  1   force =     0.00000000    0.00000000    0.00000000
     atom   14 type  1   force =     0.00000000    0.00000000    0.00000000
     atom   15 type  1   force =     0.00000000    0.00000000    0.00000000
     atom   16 type  1   force =     0.00000000    0.00000000    0.00000000
     atom   17 type  2   force =     0.00000000    0.00000000    0.00000000
     atom   18 type  2   force =     0.00000000    0.00000000    0.00000000
     atom   19 type  2   force =     0.00000000    0.00000000    0.00000000
     atom   20 type  2   force =     0.00000000    0.00000000    0.00000000
     atom   21 type  2   force =     0.00000000    0.00000000    0.00000000
     atom   22 type  2   force =     0.00000000    0.00000000    0.00000000
     atom   23 type  2   force =     0.00000000    0.00000000    0.00000000
     atom   24 type  2   force =     0.00000000    0.00000000    0.00000000
     atom   25 type  2   force =     0.00000000    0.00000000    0.00000000
     atom   26 type  2   force =     0.00000000    0.00000000    0.00000000
     atom   27 type  2   force =     0.00000000    0.00000000    0.00000000
     atom   28 type  2   force =     0.00000000    0.00000000    0.00000000
     atom   29 type  2   force =     0.00000000    0.00000000    0.00000000
     atom   30 type  2   force =     0.00000000    0.00000000    0.00000000
     atom   31 type  2   force =     0.00000000    0.00000000    0.00000000
     atom   32 type  2   force =     0.00000000    0.00000000    0.00000000
     atom   33 type  2   force =     0.00000000    0.00000000    0.00000000
     atom   34 type  2   force =     0.00000000    0.00000000    0.00000000
     atom   35 type  2   force =     0.00000000    0.00000000    0.00000000
     atom   36 type  2   force =     0.00000000    0.00000000    0.00000000
     atom   37 type  2   force =     0.00000000    0.00000000    0.00000000
     atom   38 type  2   force =     0.00000000    0.00000000    0.00000000
     atom   39 type  2   force =     0.00000000    0.00000000    0.00000000
     atom   40 type  2   force =     0.00000000    0.00000000    0.00000000
     atom   41 type  2   force =     0.00000000    0.00000000    0.00000000
     atom   42 type  2   force =     0.00000000    0.00000000    0.00000000
     atom   43 type  2   force =     0.00000000    0.00000000    0.00000000
     atom   44 type  2   force =     0.00000000    0.00000000    0.00000000
     atom   45 type  2   force =     0.00000000    0.00000000    0.00000000
     atom   46 type  2   force =     0.00000000    0.00000000    0.00000000
     atom   47 type  2   force =     0.00000000    0.00000000    0.00000000
     The SCF correction term to forces
     atom    1 type  1   force =    -0.00004627    0.00002314   -0.00000776
     atom    2 type  1   force =    -0.00000309   -0.00005164   -0.00000776
     atom    3 type  1   force =    -0.00000000   -0.00006724   -0.00000884
     atom    4 type  1   force =    -0.00005823    0.00003362   -0.00000885
     atom    5 type  1   force =    -0.00000000    0.00002806   -0.00000157
     atom    6 type  1   force =    -0.00004377   -0.00002528   -0.00001059
     atom    7 type  1   force =     0.00002430   -0.00001404   -0.00000156
     atom    8 type  1   force =     0.00005823    0.00003362   -0.00000885
     atom    9 type  1   force =     0.00004626    0.00002314   -0.00000775
     atom   10 type  1   force =     0.00004378   -0.00002528   -0.00001059
     atom   11 type  1   force =    -0.00000000    0.00005055   -0.00001060
     atom   12 type  1   force =     0.00004318    0.00002850   -0.00000775
     atom   13 type  1   force =     0.00000000    0.00000000   -0.00000265
     atom   14 type  1   force =     0.00000309   -0.00005164   -0.00000776
     atom   15 type  1   force =    -0.00002430   -0.00001403   -0.00000156
     atom   16 type  1   force =    -0.00004318    0.00002849   -0.00000775
     atom   17 type  2   force =    -0.00000048   -0.00000028   -0.00001485
     atom   18 type  2   force =     0.00000000   -0.00002871   -0.00000274
     atom   19 type  2   force =    -0.00002028   -0.00001171    0.00002109
     atom   20 type  2   force =    -0.00002486    0.00001435   -0.00000274
     atom   21 type  2   force =    -0.00001879   -0.00000337   -0.00000328
     atom   22 type  2   force =    -0.00001231   -0.00001459   -0.00000328
     atom   23 type  2   force =     0.00002028   -0.00001171    0.00002109
     atom   24 type  2   force =     0.00000000    0.00002342    0.00002109
     atom   25 type  2   force =     0.00001879   -0.00000337   -0.00000328
     atom   26 type  2   force =     0.00000648    0.00001795   -0.00000328
     atom   27 type  2   force =     0.00002486    0.00001435   -0.00000274
     atom   28 type  2   force =     0.00000048   -0.00000028   -0.00001485
     atom   29 type  2   force =     0.00001231   -0.00001459   -0.00000328
     atom   30 type  2   force =    -0.00000648    0.00001795   -0.00000328
     atom   31 type  2   force =     0.00000000    0.00000056   -0.00001485
     atom   32 type  2   force =     0.00000401    0.00000232    0.00001320
     atom   33 type  2   force =    -0.00000000   -0.00002822   -0.00000286
     atom   34 type  2   force =    -0.00001674   -0.00000967   -0.00001920
     atom   35 type  2   force =    -0.00002444    0.00001411   -0.00000286
     atom   36 type  2   force =    -0.00002156   -0.00000818    0.00000079
     atom   37 type  2   force =    -0.00001786   -0.00001458    0.00000078
     atom   38 type  2   force =     0.00001674   -0.00000967   -0.00001920
     atom   39 type  2   force =    -0.00000000    0.00001934   -0.00001920
     atom   40 type  2   force =     0.00002156   -0.00000818    0.00000079
     atom   41 type  2   force =    -0.00000000   -0.00000000   -0.00003427
     atom   42 type  2   force =     0.00000370    0.00002276    0.00000078
     atom   43 type  2   force =     0.00002444    0.00001411   -0.00000286
     atom   44 type  2   force =    -0.00000401    0.00000232    0.00001320
     atom   45 type  2   force =     0.00001786   -0.00001458    0.00000079
     atom   46 type  2   force =    -0.00000370    0.00002276    0.00000078
     atom   47 type  2   force =     0.00000000   -0.00000463    0.00001320

     Total force =     0.005586     Total SCF correction =     0.000242
     Energy error            =      8.1E-05 Ry
     Gradient error          =      1.3E-03 Ry/Bohr

     number of scf cycles    =   2
     number of bfgs steps    =   1

     energy             old  =   -2979.4269373812 Ry
     energy             new  =   -2979.4270180442 Ry

     CASE: energy            _new < energy            _old

     new trust radius        =       0.0029749573 bohr
     new conv_thr            =            1.0E-10 Ry


ATOMIC_POSITIONS (angstrom)
Mo               1.6016814919        0.9315426921       11.1767207334
Mo               0.0124236621        3.6842190298       11.1767207334
Mo              -1.5951590000        6.4409202534       11.1655885741
Mo              -3.1953683068        9.2125653733       11.1655885741
Mo               4.7854730000        0.9544758989       11.1462304788
Mo               3.2330746506        3.7085452959       11.1141104665
Mo               1.6241802896        6.4299975506       11.1462304788
Mo               0.0050513068        9.2125653733       11.1655885741
Mo               7.9692655081        0.9315436921       11.1767207334
Mo               6.3378713494        3.7085462959       11.1141104665
Mo               4.7854740000        6.3973804083       11.1141104665
Mo               3.1962161700        9.1987092781       11.1767207334
Mo              11.1661060000        0.9209640000       11.1821663835
Mo               9.5585243379        3.6842190298       11.1767207334
Mo               7.9467677104        6.4299995506       11.1462304788
Mo               6.3747318300        9.1987102781       11.1767207334
S                0.0068033873        1.8458589375       12.7399168170
S               -1.5951580000        4.6086256680       12.7335919945
S               -3.2086456870        7.3571357729       12.7107691896
S               -4.7821806589       10.1287111660       12.7335929945
S                3.2320671768        1.9090871617       12.7074246455
S                1.6741933962        4.6074029991       12.7074236455
S                0.0183306870        7.3571357729       12.7107691896
S               -1.5951580000       10.1517794542       12.7107691896
S                6.3388798232        1.9090841617       12.7074256455
S                3.2275992193        7.2979828392       12.7074236455
S                1.5918656589       10.1287121660       12.7335919945
S                9.5641436127        1.8458579375       12.7399168170
S                7.8967556038        4.6074039991       12.7074256455
S                6.3433467807        7.2979828392       12.7074246455
S                4.7854730000       10.1227561250       12.7399168170
S                0.0015357851        1.8428176860        9.6234113089
S               -1.5951580000        4.5934106407        9.6176754724
S               -3.1960335388        7.3644179774        9.6068974693
S               -4.7953572590       10.1363196796        9.6176734724
S                3.1774757084        1.8633302854        9.5859636175
S                1.6072710449        4.5830038386        9.5859646175
S                0.0057175388        7.3644179774        9.6068974693
S               -1.5951580000       10.1372150451        9.6068974693
S                6.3934712916        1.8633272854        9.5859626175
S                4.7854720000        4.6048250000        9.5473923244
S                3.2152693365        7.3681388760        9.5859646175
S                1.6050422590       10.1363196796        9.6176754724
S                9.5694112149        1.8428166860        9.6234123089
S                7.9636779551        4.5830048386        9.5859626175
S                6.3556776635        7.3681388760        9.5859636175
S                4.7854730000       10.1288396281        9.6234113089



     Writing config-only to output data dir /home/nihal/Desktop/Otptf/Trial_4.save/ :
     XML data file
     NEW-OLD atomic charge density approx. for the potential

     negative rho (up, down):  1.432E-03 1.432E-03
     Generating pointlists ...

     total cpu time spent up to now is     7086.4 secs

     Self-consistent Calculation

     iteration #  1     ecut=    65.00 Ry     beta= 0.30
     Davidson diagonalization with overlap

---- Real-time Memory Report at c_bands before calling an iterative solver
          2764 MiB given to the printing process from OS
             0 MiB allocation reported by mallinfo(arena+hblkhd)
         14580 MiB available memory on the node where the printing process lives
------------------
     ethr =  1.00E-06,  avg # of iterations =  3.0

     Threshold (ethr) on eigenvalues was too large:
     Diagonalizing with lowered threshold

     Davidson diagonalization with overlap

---- Real-time Memory Report at c_bands before calling an iterative solver
          2764 MiB given to the printing process from OS
             0 MiB allocation reported by mallinfo(arena+hblkhd)
         14779 MiB available memory on the node where the printing process lives
------------------
     ethr =  2.06E-09,  avg # of iterations =  5.0

     negative rho (up, down):  1.432E-03 1.432E-03

     total cpu time spent up to now is     7687.7 secs

     total energy              =   -2979.42706179 Ry
     estimated scf accuracy    <       0.00000979 Ry

     total magnetization       =     0.00 Bohr mag/cell
     absolute magnetization    =     0.00 Bohr mag/cell

     iteration #  2     ecut=    65.00 Ry     beta= 0.30
     Davidson diagonalization with overlap

---- Real-time Memory Report at c_bands before calling an iterative solver
          2764 MiB given to the printing process from OS
             0 MiB allocation reported by mallinfo(arena+hblkhd)
         14179 MiB available memory on the node where the printing process lives
------------------
     ethr =  2.39E-09,  avg # of iterations =  2.1

     negative rho (up, down):  1.432E-03 1.432E-03

     total cpu time spent up to now is     7892.4 secs

     total energy              =   -2979.42706175 Ry
     estimated scf accuracy    <       0.00000659 Ry

     total magnetization       =     0.00 Bohr mag/cell
     absolute magnetization    =     0.00 Bohr mag/cell

     iteration #  3     ecut=    65.00 Ry     beta= 0.30
     Davidson diagonalization with overlap

---- Real-time Memory Report at c_bands before calling an iterative solver
          2764 MiB given to the printing process from OS
             0 MiB allocation reported by mallinfo(arena+hblkhd)
         14048 MiB available memory on the node where the printing process lives
------------------
     ethr =  1.61E-09,  avg # of iterations =  2.3

     negative rho (up, down):  1.432E-03 1.432E-03

     total cpu time spent up to now is     8077.0 secs

     total energy              =   -2979.42706231 Ry
     estimated scf accuracy    <       0.00000479 Ry

     total magnetization       =     0.00 Bohr mag/cell
     absolute magnetization    =     0.00 Bohr mag/cell

     iteration #  4     ecut=    65.00 Ry     beta= 0.30
     Davidson diagonalization with overlap

---- Real-time Memory Report at c_bands before calling an iterative solver
          2764 MiB given to the printing process from OS
             0 MiB allocation reported by mallinfo(arena+hblkhd)
         13791 MiB available memory on the node where the printing process lives
------------------
     ethr =  1.17E-09,  avg # of iterations =  1.4

     negative rho (up, down):  1.432E-03 1.432E-03

     total cpu time spent up to now is     8251.4 secs

     total energy              =   -2979.42706260 Ry
     estimated scf accuracy    <       0.00000053 Ry

     total magnetization       =     0.00 Bohr mag/cell
     absolute magnetization    =     0.00 Bohr mag/cell

     iteration #  5     ecut=    65.00 Ry     beta= 0.30
     Davidson diagonalization with overlap

---- Real-time Memory Report at c_bands before calling an iterative solver
          2764 MiB given to the printing process from OS
             0 MiB allocation reported by mallinfo(arena+hblkhd)
         13922 MiB available memory on the node where the printing process lives
------------------
     ethr =  1.29E-10,  avg # of iterations =  3.0

     negative rho (up, down):  1.432E-03 1.432E-03

     total cpu time spent up to now is     8457.1 secs

     total energy              =   -2979.42706265 Ry
     estimated scf accuracy    <       0.00000042 Ry

     total magnetization       =     0.00 Bohr mag/cell
     absolute magnetization    =     0.00 Bohr mag/cell

     iteration #  6     ecut=    65.00 Ry     beta= 0.30
     Davidson diagonalization with overlap

---- Real-time Memory Report at c_bands before calling an iterative solver
          2764 MiB given to the printing process from OS
             0 MiB allocation reported by mallinfo(arena+hblkhd)
         13575 MiB available memory on the node where the printing process lives
------------------
     ethr =  1.03E-10,  avg # of iterations =  1.3

     negative rho (up, down):  1.432E-03 1.432E-03

     total cpu time spent up to now is     8631.1 secs

     total energy              =   -2979.42706268 Ry
     estimated scf accuracy    <       0.00000004 Ry

     total magnetization       =     0.00 Bohr mag/cell
     absolute magnetization    =     0.00 Bohr mag/cell

     iteration #  7     ecut=    65.00 Ry     beta= 0.30
     Davidson diagonalization with overlap

---- Real-time Memory Report at c_bands before calling an iterative solver
          2764 MiB given to the printing process from OS
             0 MiB allocation reported by mallinfo(arena+hblkhd)
         13628 MiB available memory on the node where the printing process lives
------------------
     ethr =  1.02E-11,  avg # of iterations =  3.0

     negative rho (up, down):  1.432E-03 1.432E-03

     total cpu time spent up to now is     8850.4 secs

     total energy              =   -2979.42706269 Ry
     estimated scf accuracy    <       0.00000003 Ry

     total magnetization       =     0.00 Bohr mag/cell
     absolute magnetization    =     0.00 Bohr mag/cell

     iteration #  8     ecut=    65.00 Ry     beta= 0.30
     Davidson diagonalization with overlap

---- Real-time Memory Report at c_bands before calling an iterative solver
          2764 MiB given to the printing process from OS
             0 MiB allocation reported by mallinfo(arena+hblkhd)
         13721 MiB available memory on the node where the printing process lives
------------------
     ethr =  6.73E-12,  avg # of iterations =  2.0

     negative rho (up, down):  1.432E-03 1.432E-03

     total cpu time spent up to now is     9030.1 secs

     total energy              =   -2979.42706269 Ry
     estimated scf accuracy    <          8.8E-09 Ry

     total magnetization       =     0.00 Bohr mag/cell
     absolute magnetization    =     0.00 Bohr mag/cell

     iteration #  9     ecut=    65.00 Ry     beta= 0.30
     Davidson diagonalization with overlap

---- Real-time Memory Report at c_bands before calling an iterative solver
          2764 MiB given to the printing process from OS
             0 MiB allocation reported by mallinfo(arena+hblkhd)
         13365 MiB available memory on the node where the printing process lives
------------------
     ethr =  2.14E-12,  avg # of iterations =  2.1

     negative rho (up, down):  1.432E-03 1.432E-03

     total cpu time spent up to now is     9215.3 secs

     total energy              =   -2979.42706269 Ry
     estimated scf accuracy    <          3.1E-09 Ry

     total magnetization       =     0.00 Bohr mag/cell
     absolute magnetization    =     0.00 Bohr mag/cell

     iteration # 10     ecut=    65.00 Ry     beta= 0.30
     Davidson diagonalization with overlap

---- Real-time Memory Report at c_bands before calling an iterative solver
          2764 MiB given to the printing process from OS
             0 MiB allocation reported by mallinfo(arena+hblkhd)
         13424 MiB available memory on the node where the printing process lives
------------------
     ethr =  7.58E-13,  avg # of iterations =  2.0

     negative rho (up, down):  1.432E-03 1.432E-03

     total cpu time spent up to now is     9394.5 secs

     total energy              =   -2979.42706269 Ry
     estimated scf accuracy    <          6.6E-10 Ry

     total magnetization       =     0.00 Bohr mag/cell
     absolute magnetization    =     0.00 Bohr mag/cell

     iteration # 11     ecut=    65.00 Ry     beta= 0.30
     Davidson diagonalization with overlap

---- Real-time Memory Report at c_bands before calling an iterative solver
          2764 MiB given to the printing process from OS
             0 MiB allocation reported by mallinfo(arena+hblkhd)
         13685 MiB available memory on the node where the printing process lives
------------------
     ethr =  1.61E-13,  avg # of iterations =  3.0

     negative rho (up, down):  1.432E-03 1.432E-03

     total cpu time spent up to now is     9596.0 secs

     total energy              =   -2979.42706269 Ry
     estimated scf accuracy    <          4.3E-10 Ry

     total magnetization       =     0.00 Bohr mag/cell
     absolute magnetization    =     0.00 Bohr mag/cell

     iteration # 12     ecut=    65.00 Ry     beta= 0.30
     Davidson diagonalization with overlap

---- Real-time Memory Report at c_bands before calling an iterative solver
          2764 MiB given to the printing process from OS
             0 MiB allocation reported by mallinfo(arena+hblkhd)
         13403 MiB available memory on the node where the printing process lives
------------------
     ethr =  1.05E-13,  avg # of iterations =  1.6

     negative rho (up, down):  1.432E-03 1.432E-03

     Magnetic moment per site  (integrated on atomic sphere of radius R)
     atom   1 (R=0.077)  charge= 10.6268  magn=  0.0000
     atom   2 (R=0.077)  charge= 10.6268  magn=  0.0000
     atom   3 (R=0.077)  charge= 10.6264  magn=  0.0000
     atom   4 (R=0.077)  charge= 10.6264  magn=  0.0000
     atom   5 (R=0.077)  charge= 10.6294  magn= -0.0000
     atom   6 (R=0.077)  charge= 10.6193  magn=  0.0000
     atom   7 (R=0.077)  charge= 10.6294  magn= -0.0000
     atom   8 (R=0.077)  charge= 10.6264  magn=  0.0000
     atom   9 (R=0.077)  charge= 10.6268  magn=  0.0000
     atom  10 (R=0.077)  charge= 10.6193  magn=  0.0000
     atom  11 (R=0.077)  charge= 10.6193  magn=  0.0000
     atom  12 (R=0.077)  charge= 10.6268  magn=  0.0000
     atom  13 (R=0.077)  charge= 10.6284  magn= -0.0000
     atom  14 (R=0.077)  charge= 10.6268  magn=  0.0000
     atom  15 (R=0.077)  charge= 10.6294  magn= -0.0000
     atom  16 (R=0.077)  charge= 10.6268  magn=  0.0000
     atom  17 (R=0.077)  charge=  4.0460  magn= -0.0000
     atom  18 (R=0.077)  charge=  4.0436  magn= -0.0000
     atom  19 (R=0.077)  charge=  4.0446  magn= -0.0000
     atom  20 (R=0.077)  charge=  4.0436  magn= -0.0000
     atom  21 (R=0.077)  charge=  4.0467  magn= -0.0000
     atom  22 (R=0.077)  charge=  4.0467  magn= -0.0000
     atom  23 (R=0.077)  charge=  4.0446  magn= -0.0000
     atom  24 (R=0.077)  charge=  4.0446  magn= -0.0000
     atom  25 (R=0.077)  charge=  4.0467  magn= -0.0000
     atom  26 (R=0.077)  charge=  4.0467  magn= -0.0000
     atom  27 (R=0.077)  charge=  4.0436  magn= -0.0000
     atom  28 (R=0.077)  charge=  4.0460  magn= -0.0000
     atom  29 (R=0.077)  charge=  4.0467  magn= -0.0000
     atom  30 (R=0.077)  charge=  4.0467  magn= -0.0000
     atom  31 (R=0.077)  charge=  4.0460  magn= -0.0000
     atom  32 (R=0.077)  charge=  4.0492  magn= -0.0000
     atom  33 (R=0.077)  charge=  4.0470  magn= -0.0000
     atom  34 (R=0.077)  charge=  4.0461  magn= -0.0000
     atom  35 (R=0.077)  charge=  4.0470  magn= -0.0000
     atom  36 (R=0.077)  charge=  4.0439  magn= -0.0000
     atom  37 (R=0.077)  charge=  4.0439  magn= -0.0000
     atom  38 (R=0.077)  charge=  4.0461  magn= -0.0000
     atom  39 (R=0.077)  charge=  4.0461  magn= -0.0000
     atom  40 (R=0.077)  charge=  4.0439  magn= -0.0000
     atom  41 (R=0.077)  charge=  4.0714  magn= -0.0000
     atom  42 (R=0.077)  charge=  4.0439  magn= -0.0000
     atom  43 (R=0.077)  charge=  4.0470  magn= -0.0000
     atom  44 (R=0.077)  charge=  4.0492  magn= -0.0000
     atom  45 (R=0.077)  charge=  4.0439  magn= -0.0000
     atom  46 (R=0.077)  charge=  4.0439  magn= -0.0000
     atom  47 (R=0.077)  charge=  4.0492  magn= -0.0000

     total cpu time spent up to now is     9770.9 secs

     End of self-consistent calculation

 ------ SPIN UP ------------


          k = 0.0000 0.0000 0.0000 (126355 PWs)   bands (ev):

   -60.3631 -60.3556 -60.3556 -60.3446 -60.3378 -60.3377 -60.3329 -60.3095
   -60.3095 -60.3079 -60.2999 -60.2999 -60.2965 -60.2922 -60.2761 -60.2760
   -34.6616 -34.6616 -34.6168 -34.5968 -34.5895 -34.5895 -34.5647 -34.5647
   -34.5256 -34.4862 -34.4753 -34.4744 -34.4744 -34.4724 -34.4724 -34.4521
   -34.4521 -34.4505 -34.4481 -34.4388 -34.4351 -34.4321 -34.4321 -34.4291
   -34.4290 -34.4050 -34.4050 -34.4008 -34.4008 -34.3973 -34.3865 -34.3864
   -34.3859 -34.3856 -34.3784 -34.3773 -34.3672 -34.3671 -34.3573 -34.3572
   -34.3375 -34.3375 -34.3345 -34.3060 -34.2933 -34.2933 -34.2147 -34.2146
   -13.4637 -12.7118 -12.7118 -12.6834 -12.6730 -12.6730 -12.5523 -12.1691
   -11.8959 -11.8958 -11.8458 -11.8453 -11.8453 -11.8112 -11.7199 -11.7199
   -11.7109 -11.7109 -11.6946 -11.6754 -11.6754 -11.6676 -11.5562 -11.4804
   -11.4804 -11.4568 -11.4567 -11.4389 -11.4388 -11.4336 -11.4276  -5.2009
    -5.0982  -5.0982  -4.9848  -4.5263  -4.5263  -4.5253  -4.4959  -4.4748
    -4.4748  -4.4245  -4.4112  -4.4112  -4.3882  -4.3882  -4.3658  -4.3118
    -4.3117  -4.2850  -4.2637  -4.2355  -4.2355  -4.1432  -3.9410  -3.9410
    -3.4824  -3.4824  -3.4375  -3.3195  -3.2621  -3.2495  -3.2494  -3.1797
    -3.1797  -3.0882  -3.0516  -3.0407  -3.0407  -3.0314  -3.0313  -2.9954
    -2.9726  -2.9726  -2.8494  -2.8494  -2.7260  -2.6709  -2.6708  -2.6428
    -2.6128  -2.6128  -2.5882  -2.4478  -2.4444  -2.4444  -2.3207  -2.3207
    -2.2985  -2.2429  -2.1593  -2.1593  -2.0288  -2.0288  -1.9367  -1.9227
    -1.9227  -1.9043  -1.6030  -1.6030  -1.2952  -1.2915  -1.2915  -1.2896
    -1.2731  -1.2731  -1.1824  -1.1551  -1.1045  -1.1045  -1.0599  -1.0598
    -1.0356  -1.0012  -1.0011  -0.9159  -0.8485  -0.8485  -0.7942  -0.7391
    -0.7391  -0.5405  -0.5405  -0.4568  -0.2472  -0.1693  -0.1692  -0.1379
    -0.1242  -0.1195  -0.1194  -0.0468  -0.0468  -0.0032  -0.0032   0.0268
     0.0361   0.0780   0.0780   0.4325   0.6830   1.7432   1.7433   2.6686
     2.6823   2.6927   2.6927   2.7268   2.7268   2.7376   2.7469   2.7469
     2.7718   2.7718   2.8086   2.8152   2.8152   2.8644   2.9081   2.9220
     2.9220   2.9779   3.1573   3.1573   3.2743   3.2944   3.2944   3.3257
     3.3257   3.3444   3.3541   3.3541   3.3855   3.4178   3.4178   3.4548
     3.4548   3.4649   3.5090   3.5090   3.5984   3.6600

     occupation numbers 
     1.0000   1.0000   1.0000   1.0000   1.0000   1.0000   1.0000   1.0000
     1.0000   1.0000   1.0000   1.0000   1.0000   1.0000   1.0000   1.0000
     1.0000   1.0000   1.0000   1.0000   1.0000   1.0000   1.0000   1.0000
     1.0000   1.0000   1.0000   1.0000   1.0000   1.0000   1.0000   1.0000
     1.0000   1.0000   1.0000   1.0000   1.0000   1.0000   1.0000   1.0000
     1.0000   1.0000   1.0000   1.0000   1.0000   1.0000   1.0000   1.0000
     1.0000   1.0000   1.0000   1.0000   1.0000   1.0000   1.0000   1.0000
     1.0000   1.0000   1.0000   1.0000   1.0000   1.0000   1.0000   1.0000
     1.0000   1.0000   1.0000   1.0000   1.0000   1.0000   1.0000   1.0000
     1.0000   1.0000   1.0000   1.0000   1.0000   1.0000   1.0000   1.0000
     1.0000   1.0000   1.0000   1.0000   1.0000   1.0000   1.0000   1.0000
     1.0000   1.0000   1.0000   1.0000   1.0000   1.0000   1.0000   1.0000
     1.0000   1.0000   1.0000   1.0000   1.0000   1.0000   1.0000   1.0000
     1.0000   1.0000   1.0000   1.0000   1.0000   1.0000   1.0000   1.0000
     1.0000   1.0000   1.0000   1.0000   1.0000   1.0000   1.0000   1.0000
     1.0000   1.0000   1.0000   1.0000   1.0000   1.0000   1.0000   1.0000
     1.0000   1.0000   1.0000   1.0000   1.0000   1.0000   1.0000   1.0000
     1.0000   1.0000   1.0000   1.0000   1.0000   1.0000   1.0000   1.0000
     1.0000   1.0000   1.0000   1.0000   1.0000   1.0000   1.0000   1.0000
     1.0000   1.0000   1.0000   1.0000   1.0000   1.0000   1.0000   1.0000
     1.0000   1.0000   1.0000   1.0000   1.0000   1.0000   1.0000   1.0000
     1.0000   1.0000   1.0000   1.0000   1.0000   1.0000   1.0000   1.0000
     1.0000   1.0000   1.0000   1.0000   1.0000   1.0000   1.0000   1.0000
     1.0000   1.0000   1.0000   1.0000   1.0000   1.0000   1.0000   1.0000
     1.0000   1.0000   1.0000   1.0000   1.0000   1.0000   1.0000   1.0000
     1.0000   1.0000   1.0000   1.0000   0.9992   0.0002   0.0002   0.0000
     0.0000   0.0000   0.0000   0.0000   0.0000   0.0000   0.0000   0.0000
     0.0000   0.0000   0.0000   0.0000   0.0000   0.0000   0.0000   0.0000
     0.0000   0.0000   0.0000   0.0000   0.0000   0.0000   0.0000   0.0000
     0.0000   0.0000   0.0000   0.0000   0.0000   0.0000   0.0000   0.0000
     0.0000   0.0000   0.0000   0.0000   0.0000   0.0000

          k = 0.0000 0.1925 0.0000 (126305 PWs)   bands (ev):

   -60.3629 -60.3560 -60.3556 -60.3445 -60.3379 -60.3377 -60.3327 -60.3095
   -60.3094 -60.3078 -60.3001 -60.3000 -60.2963 -60.2922 -60.2761 -60.2760
   -34.6588 -34.6568 -34.6135 -34.5994 -34.5914 -34.5888 -34.5693 -34.5616
   -34.5323 -34.5083 -34.4915 -34.4832 -34.4747 -34.4680 -34.4561 -34.4538
   -34.4523 -34.4442 -34.4439 -34.4394 -34.4349 -34.4288 -34.4278 -34.4240
   -34.4209 -34.4053 -34.4053 -34.4033 -34.3971 -34.3951 -34.3877 -34.3874
   -34.3852 -34.3786 -34.3781 -34.3734 -34.3682 -34.3672 -34.3573 -34.3571
   -34.3417 -34.3401 -34.3343 -34.3063 -34.2969 -34.2934 -34.2169 -34.2150
   -13.4390 -12.8940 -12.7924 -12.7476 -12.5593 -12.5119 -12.4255 -12.1593
   -11.9507 -11.9181 -11.8860 -11.8631 -11.8451 -11.8112 -11.7851 -11.7618
   -11.7170 -11.7089 -11.6813 -11.6776 -11.6259 -11.5806 -11.5451 -11.5185
   -11.4994 -11.4821 -11.4674 -11.4451 -11.4368 -11.4027 -11.3839  -5.1636
    -5.0647  -5.0641  -4.9553  -4.5842  -4.5508  -4.5496  -4.5349  -4.5188
    -4.4894  -4.4687  -4.4407  -4.4288  -4.4211  -4.4074  -4.3888  -4.3883
    -4.3002  -4.2680  -4.2509  -4.1641  -4.0944  -4.0856  -3.9101  -3.8883
    -3.4692  -3.4688  -3.4186  -3.3338  -3.3042  -3.2763  -3.2739  -3.1927
    -3.1621  -3.1588  -3.1305  -3.1078  -3.0990  -3.0840  -3.0765  -3.0088
    -3.0031  -2.8996  -2.7594  -2.7523  -2.6939  -2.6756  -2.6444  -2.6420
    -2.5926  -2.5880  -2.5607  -2.5557  -2.5420  -2.3939  -2.2973  -2.2911
    -2.1613  -2.1495  -2.1118  -2.1004  -2.0630  -2.0144  -1.9996  -1.9716
    -1.9262  -1.8009  -1.6361  -1.5989  -1.4368  -1.4124  -1.3183  -1.2942
    -1.2471  -1.2411  -1.2220  -1.2080  -1.1503  -1.1437  -1.0677  -1.0625
    -1.0191  -0.9633  -0.9115  -0.9039  -0.8223  -0.7991  -0.7503  -0.6729
    -0.6617  -0.6118  -0.6030  -0.5138  -0.3305  -0.2627  -0.2281  -0.1582
    -0.1311  -0.1292  -0.0508  -0.0386  -0.0301   0.0145   0.0150   0.0355
     0.1127   0.1865   0.1904   0.4372   0.6665   1.7432   1.7484   2.5687
     2.5837   2.6821   2.6894   2.7109   2.7189   2.7224   2.7316   2.7579
     2.7633   2.7863   2.7941   2.8273   2.8305   2.8665   2.8912   2.9626
     2.9715   3.0063   3.1107   3.1164   3.1879   3.2228   3.2409   3.2532
     3.2836   3.2892   3.3203   3.3424   3.3691   3.3809   3.4209   3.4379
     3.5156   3.5330   3.6076   3.6268   3.6433   3.6458

     occupation numbers 
     1.0000   1.0000   1.0000   1.0000   1.0000   1.0000   1.0000   1.0000
     1.0000   1.0000   1.0000   1.0000   1.0000   1.0000   1.0000   1.0000
     1.0000   1.0000   1.0000   1.0000   1.0000   1.0000   1.0000   1.0000
     1.0000   1.0000   1.0000   1.0000   1.0000   1.0000   1.0000   1.0000
     1.0000   1.0000   1.0000   1.0000   1.0000   1.0000   1.0000   1.0000
     1.0000   1.0000   1.0000   1.0000   1.0000   1.0000   1.0000   1.0000
     1.0000   1.0000   1.0000   1.0000   1.0000   1.0000   1.0000   1.0000
     1.0000   1.0000   1.0000   1.0000   1.0000   1.0000   1.0000   1.0000
     1.0000   1.0000   1.0000   1.0000   1.0000   1.0000   1.0000   1.0000
     1.0000   1.0000   1.0000   1.0000   1.0000   1.0000   1.0000   1.0000
     1.0000   1.0000   1.0000   1.0000   1.0000   1.0000   1.0000   1.0000
     1.0000   1.0000   1.0000   1.0000   1.0000   1.0000   1.0000   1.0000
     1.0000   1.0000   1.0000   1.0000   1.0000   1.0000   1.0000   1.0000
     1.0000   1.0000   1.0000   1.0000   1.0000   1.0000   1.0000   1.0000
     1.0000   1.0000   1.0000   1.0000   1.0000   1.0000   1.0000   1.0000
     1.0000   1.0000   1.0000   1.0000   1.0000   1.0000   1.0000   1.0000
     1.0000   1.0000   1.0000   1.0000   1.0000   1.0000   1.0000   1.0000
     1.0000   1.0000   1.0000   1.0000   1.0000   1.0000   1.0000   1.0000
     1.0000   1.0000   1.0000   1.0000   1.0000   1.0000   1.0000   1.0000
     1.0000   1.0000   1.0000   1.0000   1.0000   1.0000   1.0000   1.0000
     1.0000   1.0000   1.0000   1.0000   1.0000   1.0000   1.0000   1.0000
     1.0000   1.0000   1.0000   1.0000   1.0000   1.0000   1.0000   1.0000
     1.0000   1.0000   1.0000   1.0000   1.0000   1.0000   1.0000   1.0000
     1.0000   1.0000   1.0000   1.0000   1.0000   1.0000   1.0000   1.0000
     1.0000   1.0000   1.0000   1.0000   1.0000   1.0000   1.0000   1.0000
     1.0000   1.0000   1.0000   1.0000   0.9994   0.0002   0.0002   0.0000
     0.0000   0.0000   0.0000   0.0000   0.0000   0.0000   0.0000   0.0000
     0.0000   0.0000   0.0000   0.0000   0.0000   0.0000   0.0000   0.0000
     0.0000   0.0000   0.0000   0.0000   0.0000   0.0000   0.0000   0.0000
     0.0000   0.0000   0.0000   0.0000   0.0000   0.0000   0.0000   0.0000
     0.0000   0.0000   0.0000   0.0000   0.0000   0.0000

          k = 0.0000 0.3849 0.0000 (126328 PWs)   bands (ev):

   -60.3623 -60.3567 -60.3556 -60.3442 -60.3384 -60.3376 -60.3323 -60.3094
   -60.3093 -60.3077 -60.3005 -60.3003 -60.2961 -60.2921 -60.2761 -60.2760
   -34.6516 -34.6433 -34.6101 -34.6060 -34.5950 -34.5906 -34.5714 -34.5539
   -34.5487 -34.5336 -34.5099 -34.4848 -34.4759 -34.4728 -34.4587 -34.4562
   -34.4528 -34.4418 -34.4333 -34.4313 -34.4307 -34.4272 -34.4255 -34.4121
   -34.4082 -34.4057 -34.4041 -34.3971 -34.3919 -34.3909 -34.3889 -34.3854
   -34.3830 -34.3787 -34.3767 -34.3766 -34.3664 -34.3577 -34.3571 -34.3528
   -34.3500 -34.3455 -34.3358 -34.3074 -34.3069 -34.2934 -34.2216 -34.2155
   -13.3663 -13.0843 -12.8524 -12.7988 -12.4022 -12.3666 -12.2142 -12.1310
   -12.0443 -12.0377 -11.9907 -11.9356 -11.8956 -11.8248 -11.7523 -11.7371
   -11.7057 -11.6829 -11.6817 -11.6684 -11.6308 -11.5936 -11.5613 -11.5214
   -11.5021 -11.4752 -11.4645 -11.4455 -11.4371 -11.3727 -11.3476  -5.0585
    -4.9708  -4.9677  -4.8704  -4.7243  -4.6771  -4.6601  -4.6156  -4.6071
    -4.5746  -4.5102  -4.4990  -4.4377  -4.4242  -4.4078  -4.3637  -4.3535
    -4.3072  -4.2479  -4.2274  -4.1708  -4.0300  -3.9350  -3.7421  -3.7116
    -3.5317  -3.4307  -3.4283  -3.3752  -3.3303  -3.3092  -3.3069  -3.2877
    -3.2622  -3.2443  -3.2388  -3.2014  -3.1552  -3.1515  -3.1255  -3.0068
    -2.9355  -2.7977  -2.6962  -2.6821  -2.6526  -2.6373  -2.6274  -2.6267
    -2.5980  -2.5603  -2.5419  -2.4829  -2.4388  -2.4104  -2.3814  -2.3248
    -2.3075  -2.2383  -2.1081  -2.0828  -2.0140  -1.9355  -1.8526  -1.7600
    -1.7476  -1.6835  -1.6808  -1.5784  -1.5745  -1.4684  -1.3837  -1.3654
    -1.3191  -1.3103  -1.2285  -1.2216  -1.1716  -1.1633  -1.1359  -1.1245
    -1.0144  -1.0057  -0.9506  -0.9084  -0.8169  -0.7876  -0.7480  -0.6808
    -0.6169  -0.6056  -0.5012  -0.4639  -0.3849  -0.3121  -0.2703  -0.2357
    -0.2012  -0.1944  -0.0121   0.0064   0.0180   0.0395   0.0515   0.0656
     0.2929   0.3220   0.3287   0.4518   0.6174   1.7431   1.7617   2.4259
     2.4567   2.6064   2.6341   2.6558   2.6884   2.6962   2.7205   2.7398
     2.7576   2.7739   2.8037   2.8450   2.8729   2.8999   2.9313   2.9943
     3.0090   3.0446   3.0643   3.0948   3.1035   3.1216   3.1474   3.1753
     3.2020   3.2533   3.2724   3.3023   3.3429   3.3514   3.3714   3.4667
     3.5112   3.5340   3.5801   3.6557   3.7380   3.7428

     occupation numbers 
     1.0000   1.0000   1.0000   1.0000   1.0000   1.0000   1.0000   1.0000
     1.0000   1.0000   1.0000   1.0000   1.0000   1.0000   1.0000   1.0000
     1.0000   1.0000   1.0000   1.0000   1.0000   1.0000   1.0000   1.0000
     1.0000   1.0000   1.0000   1.0000   1.0000   1.0000   1.0000   1.0000
     1.0000   1.0000   1.0000   1.0000   1.0000   1.0000   1.0000   1.0000
     1.0000   1.0000   1.0000   1.0000   1.0000   1.0000   1.0000   1.0000
     1.0000   1.0000   1.0000   1.0000   1.0000   1.0000   1.0000   1.0000
     1.0000   1.0000   1.0000   1.0000   1.0000   1.0000   1.0000   1.0000
     1.0000   1.0000   1.0000   1.0000   1.0000   1.0000   1.0000   1.0000
     1.0000   1.0000   1.0000   1.0000   1.0000   1.0000   1.0000   1.0000
     1.0000   1.0000   1.0000   1.0000   1.0000   1.0000   1.0000   1.0000
     1.0000   1.0000   1.0000   1.0000   1.0000   1.0000   1.0000   1.0000
     1.0000   1.0000   1.0000   1.0000   1.0000   1.0000   1.0000   1.0000
     1.0000   1.0000   1.0000   1.0000   1.0000   1.0000   1.0000   1.0000
     1.0000   1.0000   1.0000   1.0000   1.0000   1.0000   1.0000   1.0000
     1.0000   1.0000   1.0000   1.0000   1.0000   1.0000   1.0000   1.0000
     1.0000   1.0000   1.0000   1.0000   1.0000   1.0000   1.0000   1.0000
     1.0000   1.0000   1.0000   1.0000   1.0000   1.0000   1.0000   1.0000
     1.0000   1.0000   1.0000   1.0000   1.0000   1.0000   1.0000   1.0000
     1.0000   1.0000   1.0000   1.0000   1.0000   1.0000   1.0000   1.0000
     1.0000   1.0000   1.0000   1.0000   1.0000   1.0000   1.0000   1.0000
     1.0000   1.0000   1.0000   1.0000   1.0000   1.0000   1.0000   1.0000
     1.0000   1.0000   1.0000   1.0000   1.0000   1.0000   1.0000   1.0000
     1.0000   1.0000   1.0000   1.0000   1.0000   1.0000   1.0000   1.0000
     1.0000   1.0000   1.0000   1.0000   1.0000   1.0000   1.0000   1.0000
     1.0000   1.0000   1.0000   1.0000   0.9997   0.0002   0.0002   0.0000
     0.0000   0.0000   0.0000   0.0000   0.0000   0.0000   0.0000   0.0000
     0.0000   0.0000   0.0000   0.0000   0.0000   0.0000   0.0000   0.0000
     0.0000   0.0000   0.0000   0.0000   0.0000   0.0000   0.0000   0.0000
     0.0000   0.0000   0.0000   0.0000   0.0000   0.0000   0.0000   0.0000
     0.0000   0.0000   0.0000   0.0000   0.0000   0.0000

          k = 0.0000-0.5774 0.0000 (126288 PWs)   bands (ev):

   -60.3620 -60.3572 -60.3557 -60.3440 -60.3386 -60.3376 -60.3322 -60.3093
   -60.3092 -60.3077 -60.3007 -60.3004 -60.2959 -60.2921 -60.2762 -60.2760
   -34.6462 -34.6293 -34.6175 -34.6141 -34.5934 -34.5896 -34.5692 -34.5579
   -34.5480 -34.5458 -34.5196 -34.4811 -34.4800 -34.4716 -34.4657 -34.4596
   -34.4530 -34.4426 -34.4323 -34.4270 -34.4248 -34.4218 -34.4213 -34.4077
   -34.4056 -34.4052 -34.3985 -34.3967 -34.3964 -34.3904 -34.3897 -34.3892
   -34.3815 -34.3785 -34.3689 -34.3679 -34.3673 -34.3587 -34.3575 -34.3557
   -34.3553 -34.3378 -34.3369 -34.3162 -34.3082 -34.2932 -34.2242 -34.2158
   -13.2680 -13.2227 -12.8728 -12.8171 -12.2455 -12.2297 -12.2235 -12.1587
   -12.0966 -12.0762 -12.0184 -11.9519 -11.9438 -11.9002 -11.7090 -11.7054
   -11.6987 -11.6760 -11.6665 -11.6628 -11.6579 -11.6013 -11.5959 -11.5520
   -11.4811 -11.4616 -11.4563 -11.4424 -11.4372 -11.3617 -11.3347  -4.9262
    -4.8772  -4.8661  -4.8473  -4.7897  -4.7860  -4.7597  -4.7107  -4.6581
    -4.6575  -4.4958  -4.4932  -4.4499  -4.4383  -4.4143  -4.3405  -4.3293
    -4.2983  -4.2449  -4.2298  -4.1463  -4.0336  -3.8098  -3.7351  -3.5669
    -3.5068  -3.4366  -3.4352  -3.3823  -3.3720  -3.3636  -3.3335  -3.3315
    -3.3056  -3.2943  -3.2814  -3.2403  -3.1969  -3.1740  -3.1303  -2.9900
    -2.9570  -2.6687  -2.6608  -2.6326  -2.6315  -2.6000  -2.5890  -2.5709
    -2.5648  -2.5574  -2.5495  -2.5249  -2.5191  -2.4312  -2.4271  -2.3915
    -2.3572  -2.2301  -2.1074  -2.0368  -2.0207  -1.9286  -1.8531  -1.8290
    -1.6928  -1.5095  -1.4967  -1.4370  -1.4062  -1.3993  -1.3974  -1.3741
    -1.3596  -1.3518  -1.3286  -1.3141  -1.2905  -1.2158  -1.1908  -1.1724
    -1.1652  -1.1623  -0.9594  -0.9315  -0.8069  -0.7233  -0.7023  -0.6551
    -0.6354  -0.5968  -0.4400  -0.4131  -0.3564  -0.3175  -0.2965  -0.2703
    -0.2520  -0.2219   0.0001   0.0324   0.0336   0.0489   0.0689   0.0788
     0.3696   0.3807   0.4017   0.4693   0.5688   1.7425   1.7704   2.3618
     2.4019   2.5685   2.5978   2.6094   2.6590   2.6843   2.7175   2.7407
     2.7600   2.7701   2.8056   2.8379   2.8856   2.9942   3.0038   3.0194
     3.0254   3.0411   3.0466   3.0575   3.0620   3.0735   3.0770   3.1308
     3.1447   3.2039   3.2993   3.3030   3.3253   3.3276   3.3455   3.4981
     3.5179   3.5310   3.6204   3.6613   3.6816   3.7499

     occupation numbers 
     1.0000   1.0000   1.0000   1.0000   1.0000   1.0000   1.0000   1.0000
     1.0000   1.0000   1.0000   1.0000   1.0000   1.0000   1.0000   1.0000
     1.0000   1.0000   1.0000   1.0000   1.0000   1.0000   1.0000   1.0000
     1.0000   1.0000   1.0000   1.0000   1.0000   1.0000   1.0000   1.0000
     1.0000   1.0000   1.0000   1.0000   1.0000   1.0000   1.0000   1.0000
     1.0000   1.0000   1.0000   1.0000   1.0000   1.0000   1.0000   1.0000
     1.0000   1.0000   1.0000   1.0000   1.0000   1.0000   1.0000   1.0000
     1.0000   1.0000   1.0000   1.0000   1.0000   1.0000   1.0000   1.0000
     1.0000   1.0000   1.0000   1.0000   1.0000   1.0000   1.0000   1.0000
     1.0000   1.0000   1.0000   1.0000   1.0000   1.0000   1.0000   1.0000
     1.0000   1.0000   1.0000   1.0000   1.0000   1.0000   1.0000   1.0000
     1.0000   1.0000   1.0000   1.0000   1.0000   1.0000   1.0000   1.0000
     1.0000   1.0000   1.0000   1.0000   1.0000   1.0000   1.0000   1.0000
     1.0000   1.0000   1.0000   1.0000   1.0000   1.0000   1.0000   1.0000
     1.0000   1.0000   1.0000   1.0000   1.0000   1.0000   1.0000   1.0000
     1.0000   1.0000   1.0000   1.0000   1.0000   1.0000   1.0000   1.0000
     1.0000   1.0000   1.0000   1.0000   1.0000   1.0000   1.0000   1.0000
     1.0000   1.0000   1.0000   1.0000   1.0000   1.0000   1.0000   1.0000
     1.0000   1.0000   1.0000   1.0000   1.0000   1.0000   1.0000   1.0000
     1.0000   1.0000   1.0000   1.0000   1.0000   1.0000   1.0000   1.0000
     1.0000   1.0000   1.0000   1.0000   1.0000   1.0000   1.0000   1.0000
     1.0000   1.0000   1.0000   1.0000   1.0000   1.0000   1.0000   1.0000
     1.0000   1.0000   1.0000   1.0000   1.0000   1.0000   1.0000   1.0000
     1.0000   1.0000   1.0000   1.0000   1.0000   1.0000   1.0000   1.0000
     1.0000   1.0000   1.0000   1.0000   1.0000   1.0000   1.0000   1.0000
     1.0000   1.0000   1.0000   1.0000   0.9998   0.0002   0.0001   0.0000
     0.0000   0.0000   0.0000   0.0000   0.0000   0.0000   0.0000   0.0000
     0.0000   0.0000   0.0000   0.0000   0.0000   0.0000   0.0000   0.0000
     0.0000   0.0000   0.0000   0.0000   0.0000   0.0000   0.0000   0.0000
     0.0000   0.0000   0.0000   0.0000   0.0000   0.0000   0.0000   0.0000
     0.0000   0.0000   0.0000   0.0000   0.0000   0.0000

          k = 0.1667 0.2887 0.0000 (126343 PWs)   bands (ev):

   -60.3625 -60.3565 -60.3557 -60.3442 -60.3382 -60.3377 -60.3324 -60.3094
   -60.3093 -60.3078 -60.3004 -60.3002 -60.2961 -60.2921 -60.2761 -60.2760
   -34.6537 -34.6477 -34.6078 -34.6043 -34.5992 -34.5827 -34.5761 -34.5591
   -34.5405 -34.5286 -34.5011 -34.4941 -34.4734 -34.4660 -34.4564 -34.4549
   -34.4532 -34.4422 -34.4385 -34.4339 -34.4303 -34.4278 -34.4258 -34.4245
   -34.4067 -34.4049 -34.4023 -34.3969 -34.3940 -34.3906 -34.3879 -34.3869
   -34.3844 -34.3792 -34.3782 -34.3737 -34.3671 -34.3592 -34.3570 -34.3565
   -34.3472 -34.3443 -34.3356 -34.3077 -34.3027 -34.2939 -34.2203 -34.2155
   -13.3902 -12.9926 -12.9565 -12.6428 -12.5774 -12.3170 -12.3007 -12.1405
   -12.0395 -11.9862 -11.9694 -11.8643 -11.8521 -11.8292 -11.7961 -11.7652
   -11.7472 -11.6993 -11.6914 -11.6261 -11.6001 -11.5882 -11.5364 -11.5301
   -11.5027 -11.4943 -11.4885 -11.4461 -11.4051 -11.3973 -11.3513  -5.0922
    -5.0006  -4.9988  -4.8980  -4.6663  -4.6417  -4.6150  -4.5769  -4.5491
    -4.5414  -4.5218  -4.5080  -4.4889  -4.4480  -4.4419  -4.3860  -4.3611
    -4.2936  -4.2343  -4.2006  -4.0979  -4.0511  -3.9808  -3.8797  -3.7083
    -3.4495  -3.4470  -3.4377  -3.4138  -3.3557  -3.3262  -3.2887  -3.2689
    -3.2316  -3.2252  -3.1870  -3.1740  -3.1335  -3.1160  -3.0535  -2.9766
    -2.9361  -2.8896  -2.8208  -2.7781  -2.6926  -2.6663  -2.6222  -2.5993
    -2.5707  -2.5437  -2.5163  -2.4799  -2.3935  -2.3610  -2.3042  -2.2788
    -2.2574  -2.2341  -2.2132  -2.1443  -2.0546  -1.9566  -1.8709  -1.7766
    -1.7427  -1.7414  -1.6484  -1.6195  -1.5961  -1.4716  -1.3831  -1.3386
    -1.3120  -1.2585  -1.2392  -1.2273  -1.1975  -1.1328  -1.0998  -1.0532
    -0.9974  -0.9642  -0.9511  -0.9188  -0.8273  -0.7974  -0.7367  -0.6814
    -0.6215  -0.5904  -0.5453  -0.5251  -0.3536  -0.3398  -0.2293  -0.1976
    -0.1391  -0.1351  -0.1146  -0.0996  -0.0505   0.0634   0.1218   0.1519
     0.2130   0.2203   0.3426   0.4457   0.6334   1.7388   1.7626   2.4053
     2.5924   2.6061   2.6299   2.6677   2.6822   2.7089   2.7237   2.7436
     2.7677   2.7761   2.8095   2.8322   2.8576   2.8805   2.9240   2.9814
     3.0053   3.0418   3.0695   3.1016   3.1359   3.1530   3.1705   3.1796
     3.2170   3.2338   3.2936   3.3027   3.3039   3.3651   3.3830   3.4634
     3.5312   3.5516   3.6338   3.6842   3.7084   3.7217

     occupation numbers 
     1.0000   1.0000   1.0000   1.0000   1.0000   1.0000   1.0000   1.0000
     1.0000   1.0000   1.0000   1.0000   1.0000   1.0000   1.0000   1.0000
     1.0000   1.0000   1.0000   1.0000   1.0000   1.0000   1.0000   1.0000
     1.0000   1.0000   1.0000   1.0000   1.0000   1.0000   1.0000   1.0000
     1.0000   1.0000   1.0000   1.0000   1.0000   1.0000   1.0000   1.0000
     1.0000   1.0000   1.0000   1.0000   1.0000   1.0000   1.0000   1.0000
     1.0000   1.0000   1.0000   1.0000   1.0000   1.0000   1.0000   1.0000
     1.0000   1.0000   1.0000   1.0000   1.0000   1.0000   1.0000   1.0000
     1.0000   1.0000   1.0000   1.0000   1.0000   1.0000   1.0000   1.0000
     1.0000   1.0000   1.0000   1.0000   1.0000   1.0000   1.0000   1.0000
     1.0000   1.0000   1.0000   1.0000   1.0000   1.0000   1.0000   1.0000
     1.0000   1.0000   1.0000   1.0000   1.0000   1.0000   1.0000   1.0000
     1.0000   1.0000   1.0000   1.0000   1.0000   1.0000   1.0000   1.0000
     1.0000   1.0000   1.0000   1.0000   1.0000   1.0000   1.0000   1.0000
     1.0000   1.0000   1.0000   1.0000   1.0000   1.0000   1.0000   1.0000
     1.0000   1.0000   1.0000   1.0000   1.0000   1.0000   1.0000   1.0000
     1.0000   1.0000   1.0000   1.0000   1.0000   1.0000   1.0000   1.0000
     1.0000   1.0000   1.0000   1.0000   1.0000   1.0000   1.0000   1.0000
     1.0000   1.0000   1.0000   1.0000   1.0000   1.0000   1.0000   1.0000
     1.0000   1.0000   1.0000   1.0000   1.0000   1.0000   1.0000   1.0000
     1.0000   1.0000   1.0000   1.0000   1.0000   1.0000   1.0000   1.0000
     1.0000   1.0000   1.0000   1.0000   1.0000   1.0000   1.0000   1.0000
     1.0000   1.0000   1.0000   1.0000   1.0000   1.0000   1.0000   1.0000
     1.0000   1.0000   1.0000   1.0000   1.0000   1.0000   1.0000   1.0000
     1.0000   1.0000   1.0000   1.0000   1.0000   1.0000   1.0000   1.0000
     1.0000   1.0000   1.0000   1.0000   0.9996   0.0002   0.0002   0.0000
     0.0000   0.0000   0.0000   0.0000   0.0000   0.0000   0.0000   0.0000
     0.0000   0.0000   0.0000   0.0000   0.0000   0.0000   0.0000   0.0000
     0.0000   0.0000   0.0000   0.0000   0.0000   0.0000   0.0000   0.0000
     0.0000   0.0000   0.0000   0.0000   0.0000   0.0000   0.0000   0.0000
     0.0000   0.0000   0.0000   0.0000   0.0000   0.0000

          k = 0.1667 0.4811 0.0000 (126406 PWs)   bands (ev):

   -60.3620 -60.3571 -60.3557 -60.3440 -60.3385 -60.3376 -60.3322 -60.3094
   -60.3092 -60.3077 -60.3006 -60.3004 -60.2959 -60.2921 -60.2762 -60.2760
   -34.6459 -34.6331 -34.6152 -34.6058 -34.6003 -34.5869 -34.5731 -34.5614
   -34.5556 -34.5310 -34.5168 -34.4974 -34.4722 -34.4715 -34.4590 -34.4546
   -34.4490 -34.4425 -34.4412 -34.4326 -34.4273 -34.4244 -34.4207 -34.4081
   -34.4066 -34.4045 -34.4015 -34.3978 -34.3916 -34.3899 -34.3873 -34.3835
   -34.3799 -34.3783 -34.3726 -34.3711 -34.3639 -34.3578 -34.3574 -34.3557
   -34.3537 -34.3420 -34.3371 -34.3160 -34.3069 -34.2941 -34.2236 -34.2162
   -13.2963 -13.1517 -13.0130 -12.6500 -12.4317 -12.2427 -12.1616 -12.1143
   -12.0845 -12.0501 -12.0059 -11.9762 -11.8927 -11.8493 -11.8113 -11.7696
   -11.7510 -11.6864 -11.6424 -11.6229 -11.6086 -11.5813 -11.5687 -11.5467
   -11.5062 -11.5003 -11.4745 -11.4213 -11.4080 -11.3766 -11.3299  -4.9620
    -4.8880  -4.8805  -4.7953  -4.7832  -4.7550  -4.7133  -4.6824  -4.6413
    -4.6258  -4.6032  -4.5556  -4.5017  -4.4856  -4.4136  -4.3642  -4.3490
    -4.2722  -4.2530  -4.1035  -4.0546  -3.9667  -3.8752  -3.7800  -3.6585
    -3.5742  -3.4184  -3.4075  -3.3836  -3.3535  -3.3403  -3.3243  -3.3085
    -3.2957  -3.2794  -3.2670  -3.2325  -3.2269  -3.1421  -3.1015  -3.0035
    -2.9155  -2.8193  -2.7434  -2.6953  -2.6599  -2.6275  -2.5981  -2.5761
    -2.5465  -2.5133  -2.4985  -2.4792  -2.4507  -2.4256  -2.3945  -2.3784
    -2.3000  -2.2559  -2.1582  -2.0322  -1.9990  -1.8641  -1.8143  -1.7707
    -1.6946  -1.6726  -1.6040  -1.4985  -1.4794  -1.4480  -1.3958  -1.3609
    -1.3540  -1.3385  -1.3047  -1.2616  -1.2208  -1.2095  -1.1625  -1.1221
    -1.0868  -1.0310  -0.9939  -0.9683  -0.8911  -0.7976  -0.7619  -0.6899
    -0.5717  -0.5501  -0.4535  -0.4343  -0.3291  -0.3029  -0.2614  -0.2416
    -0.2222  -0.1892  -0.1091  -0.0955  -0.0548   0.1073   0.1472   0.2158
     0.2868   0.3579   0.4435   0.4645   0.5758   1.7325   1.7815   2.2809
     2.5269   2.5358   2.5976   2.6269   2.6664   2.6847   2.7087   2.7226
     2.7626   2.7892   2.7975   2.8309   2.8888   2.9545   2.9838   3.0001
     3.0245   3.0418   3.0592   3.0728   3.0844   3.1052   3.1113   3.1241
     3.1563   3.1675   3.1946   3.2386   3.3039   3.3442   3.4126   3.4486
     3.5310   3.5837   3.6735   3.7146   3.7535   3.7653

     occupation numbers 
     1.0000   1.0000   1.0000   1.0000   1.0000   1.0000   1.0000   1.0000
     1.0000   1.0000   1.0000   1.0000   1.0000   1.0000   1.0000   1.0000
     1.0000   1.0000   1.0000   1.0000   1.0000   1.0000   1.0000   1.0000
     1.0000   1.0000   1.0000   1.0000   1.0000   1.0000   1.0000   1.0000
     1.0000   1.0000   1.0000   1.0000   1.0000   1.0000   1.0000   1.0000
     1.0000   1.0000   1.0000   1.0000   1.0000   1.0000   1.0000   1.0000
     1.0000   1.0000   1.0000   1.0000   1.0000   1.0000   1.0000   1.0000
     1.0000   1.0000   1.0000   1.0000   1.0000   1.0000   1.0000   1.0000
     1.0000   1.0000   1.0000   1.0000   1.0000   1.0000   1.0000   1.0000
     1.0000   1.0000   1.0000   1.0000   1.0000   1.0000   1.0000   1.0000
     1.0000   1.0000   1.0000   1.0000   1.0000   1.0000   1.0000   1.0000
     1.0000   1.0000   1.0000   1.0000   1.0000   1.0000   1.0000   1.0000
     1.0000   1.0000   1.0000   1.0000   1.0000   1.0000   1.0000   1.0000
     1.0000   1.0000   1.0000   1.0000   1.0000   1.0000   1.0000   1.0000
     1.0000   1.0000   1.0000   1.0000   1.0000   1.0000   1.0000   1.0000
     1.0000   1.0000   1.0000   1.0000   1.0000   1.0000   1.0000   1.0000
     1.0000   1.0000   1.0000   1.0000   1.0000   1.0000   1.0000   1.0000
     1.0000   1.0000   1.0000   1.0000   1.0000   1.0000   1.0000   1.0000
     1.0000   1.0000   1.0000   1.0000   1.0000   1.0000   1.0000   1.0000
     1.0000   1.0000   1.0000   1.0000   1.0000   1.0000   1.0000   1.0000
     1.0000   1.0000   1.0000   1.0000   1.0000   1.0000   1.0000   1.0000
     1.0000   1.0000   1.0000   1.0000   1.0000   1.0000   1.0000   1.0000
     1.0000   1.0000   1.0000   1.0000   1.0000   1.0000   1.0000   1.0000
     1.0000   1.0000   1.0000   1.0000   1.0000   1.0000   1.0000   1.0000
     1.0000   1.0000   1.0000   1.0000   1.0000   1.0000   1.0000   1.0000
     1.0000   1.0000   1.0000   1.0000   0.9998   0.0002   0.0001   0.0000
     0.0000   0.0000   0.0000   0.0000   0.0000   0.0000   0.0000   0.0000
     0.0000   0.0000   0.0000   0.0000   0.0000   0.0000   0.0000   0.0000
     0.0000   0.0000   0.0000   0.0000   0.0000   0.0000   0.0000   0.0000
     0.0000   0.0000   0.0000   0.0000   0.0000   0.0000   0.0000   0.0000
     0.0000   0.0000   0.0000   0.0000   0.0000   0.0000

          k = 0.3333 0.5774 0.0000 (126429 PWs)   bands (ev):

   -60.3618 -60.3573 -60.3558 -60.3440 -60.3386 -60.3376 -60.3321 -60.3094
   -60.3091 -60.3077 -60.3006 -60.3006 -60.2959 -60.2920 -60.2762 -60.2760
   -34.6413 -34.6292 -34.6167 -34.6036 -34.5970 -34.5931 -34.5822 -34.5617
   -34.5564 -34.5250 -34.5222 -34.5037 -34.4708 -34.4683 -34.4588 -34.4564
   -34.4562 -34.4410 -34.4322 -34.4275 -34.4262 -34.4238 -34.4232 -34.4217
   -34.4075 -34.4040 -34.3978 -34.3919 -34.3914 -34.3877 -34.3875 -34.3828
   -34.3788 -34.3760 -34.3717 -34.3641 -34.3619 -34.3592 -34.3584 -34.3569
   -34.3553 -34.3436 -34.3326 -34.3240 -34.3070 -34.2948 -34.2242 -34.2169
   -13.2022 -13.1907 -13.1295 -12.4791 -12.4741 -12.3895 -12.0807 -12.0584
   -12.0501 -11.9924 -11.9874 -11.9635 -11.9535 -11.9526 -11.8332 -11.7856
   -11.7760 -11.7214 -11.6025 -11.5945 -11.5650 -11.5643 -11.5616 -11.5565
   -11.5525 -11.5362 -11.4700 -11.3976 -11.3937 -11.3903 -11.3216  -4.8533
    -4.7966  -4.7956  -4.7838  -4.7779  -4.7635  -4.7565  -4.7564  -4.6885
    -4.6847  -4.6759  -4.6086  -4.5960  -4.4881  -4.4383  -4.3685  -4.3162
    -4.2622  -4.2595  -3.9508  -3.9330  -3.8688  -3.8524  -3.8519  -3.7565
    -3.6944  -3.4422  -3.3690  -3.3681  -3.3644  -3.3532  -3.3257  -3.3028
    -3.2956  -3.2857  -3.2812  -3.2421  -3.1792  -3.1782  -3.0437  -3.0207
    -2.9570  -2.8173  -2.7367  -2.6324  -2.6227  -2.6006  -2.5920  -2.5791
    -2.5711  -2.5575  -2.5337  -2.5179  -2.5168  -2.5123  -2.4522  -2.3826
    -2.1669  -2.1644  -2.0491  -2.0190  -2.0130  -1.7989  -1.7748  -1.7469
    -1.7358  -1.6823  -1.5959  -1.5375  -1.5044  -1.4926  -1.4750  -1.4218
    -1.3365  -1.3049  -1.2662  -1.2211  -1.1824  -1.0794  -1.0786  -1.0707
    -1.0628  -1.0564  -1.0512  -1.0511  -1.0395  -1.0243  -0.7721  -0.6596
    -0.5550  -0.4856  -0.4487  -0.4044  -0.2819  -0.2437  -0.2428  -0.2214
    -0.2169  -0.2056  -0.1797  -0.1630  -0.1202   0.1614   0.1731   0.2519
     0.3330   0.3830   0.4272   0.5131   0.5468   1.7241   1.7954   2.2149
     2.4955   2.5753   2.5811   2.6378   2.6540   2.6588   2.6990   2.7269
     2.7429   2.7915   2.7944   2.8181   2.9576   2.9636   2.9893   2.9984
     3.0393   3.0454   3.0466   3.0642   3.0669   3.0692   3.0792   3.1111
     3.1324   3.1469   3.1853   3.2111   3.2522   3.2919   3.3730   3.5502
     3.5552   3.6582   3.6778   3.6842   3.7682   3.8107

     occupation numbers 
     1.0000   1.0000   1.0000   1.0000   1.0000   1.0000   1.0000   1.0000
     1.0000   1.0000   1.0000   1.0000   1.0000   1.0000   1.0000   1.0000
     1.0000   1.0000   1.0000   1.0000   1.0000   1.0000   1.0000   1.0000
     1.0000   1.0000   1.0000   1.0000   1.0000   1.0000   1.0000   1.0000
     1.0000   1.0000   1.0000   1.0000   1.0000   1.0000   1.0000   1.0000
     1.0000   1.0000   1.0000   1.0000   1.0000   1.0000   1.0000   1.0000
     1.0000   1.0000   1.0000   1.0000   1.0000   1.0000   1.0000   1.0000
     1.0000   1.0000   1.0000   1.0000   1.0000   1.0000   1.0000   1.0000
     1.0000   1.0000   1.0000   1.0000   1.0000   1.0000   1.0000   1.0000
     1.0000   1.0000   1.0000   1.0000   1.0000   1.0000   1.0000   1.0000
     1.0000   1.0000   1.0000   1.0000   1.0000   1.0000   1.0000   1.0000
     1.0000   1.0000   1.0000   1.0000   1.0000   1.0000   1.0000   1.0000
     1.0000   1.0000   1.0000   1.0000   1.0000   1.0000   1.0000   1.0000
     1.0000   1.0000   1.0000   1.0000   1.0000   1.0000   1.0000   1.0000
     1.0000   1.0000   1.0000   1.0000   1.0000   1.0000   1.0000   1.0000
     1.0000   1.0000   1.0000   1.0000   1.0000   1.0000   1.0000   1.0000
     1.0000   1.0000   1.0000   1.0000   1.0000   1.0000   1.0000   1.0000
     1.0000   1.0000   1.0000   1.0000   1.0000   1.0000   1.0000   1.0000
     1.0000   1.0000   1.0000   1.0000   1.0000   1.0000   1.0000   1.0000
     1.0000   1.0000   1.0000   1.0000   1.0000   1.0000   1.0000   1.0000
     1.0000   1.0000   1.0000   1.0000   1.0000   1.0000   1.0000   1.0000
     1.0000   1.0000   1.0000   1.0000   1.0000   1.0000   1.0000   1.0000
     1.0000   1.0000   1.0000   1.0000   1.0000   1.0000   1.0000   1.0000
     1.0000   1.0000   1.0000   1.0000   1.0000   1.0000   1.0000   1.0000
     1.0000   1.0000   1.0000   1.0000   1.0000   1.0000   1.0000   1.0000
     1.0000   1.0000   1.0000   0.9999   0.9999   0.0003   0.0001   0.0000
     0.0000   0.0000   0.0000   0.0000   0.0000   0.0000   0.0000   0.0000
     0.0000   0.0000   0.0000   0.0000   0.0000   0.0000   0.0000   0.0000
     0.0000   0.0000   0.0000   0.0000   0.0000   0.0000   0.0000   0.0000
     0.0000   0.0000   0.0000   0.0000   0.0000   0.0000   0.0000   0.0000
     0.0000   0.0000   0.0000   0.0000   0.0000   0.0000

 ------ SPIN DOWN ----------


          k = 0.0000 0.0000 0.0000 (126355 PWs)   bands (ev):

   -60.3631 -60.3556 -60.3556 -60.3446 -60.3378 -60.3377 -60.3329 -60.3095
   -60.3095 -60.3079 -60.2999 -60.2999 -60.2965 -60.2922 -60.2761 -60.2760
   -34.6616 -34.6616 -34.6168 -34.5968 -34.5895 -34.5895 -34.5647 -34.5647
   -34.5256 -34.4862 -34.4753 -34.4744 -34.4744 -34.4724 -34.4724 -34.4521
   -34.4521 -34.4505 -34.4481 -34.4388 -34.4351 -34.4321 -34.4321 -34.4291
   -34.4290 -34.4050 -34.4050 -34.4008 -34.4008 -34.3973 -34.3865 -34.3864
   -34.3859 -34.3856 -34.3784 -34.3773 -34.3672 -34.3671 -34.3573 -34.3572
   -34.3375 -34.3375 -34.3345 -34.3060 -34.2933 -34.2933 -34.2147 -34.2146
   -13.4637 -12.7118 -12.7118 -12.6834 -12.6730 -12.6730 -12.5523 -12.1691
   -11.8959 -11.8958 -11.8458 -11.8453 -11.8453 -11.8112 -11.7199 -11.7199
   -11.7109 -11.7109 -11.6946 -11.6754 -11.6754 -11.6676 -11.5562 -11.4804
   -11.4804 -11.4568 -11.4567 -11.4389 -11.4388 -11.4336 -11.4276  -5.2009
    -5.0982  -5.0982  -4.9848  -4.5263  -4.5263  -4.5253  -4.4959  -4.4748
    -4.4748  -4.4245  -4.4112  -4.4112  -4.3882  -4.3882  -4.3658  -4.3118
    -4.3117  -4.2850  -4.2637  -4.2355  -4.2355  -4.1432  -3.9410  -3.9410
    -3.4824  -3.4824  -3.4375  -3.3195  -3.2621  -3.2495  -3.2494  -3.1797
    -3.1797  -3.0882  -3.0516  -3.0407  -3.0407  -3.0314  -3.0313  -2.9954
    -2.9726  -2.9726  -2.8494  -2.8494  -2.7260  -2.6709  -2.6708  -2.6428
    -2.6128  -2.6128  -2.5882  -2.4478  -2.4444  -2.4444  -2.3207  -2.3207
    -2.2985  -2.2429  -2.1593  -2.1593  -2.0288  -2.0288  -1.9367  -1.9227
    -1.9227  -1.9043  -1.6030  -1.6030  -1.2952  -1.2915  -1.2915  -1.2896
    -1.2731  -1.2731  -1.1824  -1.1551  -1.1045  -1.1045  -1.0599  -1.0598
    -1.0356  -1.0012  -1.0011  -0.9159  -0.8485  -0.8485  -0.7942  -0.7391
    -0.7391  -0.5405  -0.5405  -0.4568  -0.2472  -0.1693  -0.1692  -0.1379
    -0.1242  -0.1195  -0.1194  -0.0468  -0.0468  -0.0032  -0.0032   0.0268
     0.0361   0.0780   0.0780   0.4325   0.6830   1.7432   1.7433   2.6686
     2.6823   2.6927   2.6927   2.7268   2.7268   2.7376   2.7469   2.7469
     2.7718   2.7718   2.8086   2.8152   2.8152   2.8644   2.9081   2.9220
     2.9220   2.9779   3.1573   3.1573   3.2743   3.2944   3.2944   3.3257
     3.3257   3.3444   3.3541   3.3541   3.3855   3.4178   3.4178   3.4548
     3.4548   3.4649   3.5090   3.5090   3.5984   3.6604

     occupation numbers 
     1.0000   1.0000   1.0000   1.0000   1.0000   1.0000   1.0000   1.0000
     1.0000   1.0000   1.0000   1.0000   1.0000   1.0000   1.0000   1.0000
     1.0000   1.0000   1.0000   1.0000   1.0000   1.0000   1.0000   1.0000
     1.0000   1.0000   1.0000   1.0000   1.0000   1.0000   1.0000   1.0000
     1.0000   1.0000   1.0000   1.0000   1.0000   1.0000   1.0000   1.0000
     1.0000   1.0000   1.0000   1.0000   1.0000   1.0000   1.0000   1.0000
     1.0000   1.0000   1.0000   1.0000   1.0000   1.0000   1.0000   1.0000
     1.0000   1.0000   1.0000   1.0000   1.0000   1.0000   1.0000   1.0000
     1.0000   1.0000   1.0000   1.0000   1.0000   1.0000   1.0000   1.0000
     1.0000   1.0000   1.0000   1.0000   1.0000   1.0000   1.0000   1.0000
     1.0000   1.0000   1.0000   1.0000   1.0000   1.0000   1.0000   1.0000
     1.0000   1.0000   1.0000   1.0000   1.0000   1.0000   1.0000   1.0000
     1.0000   1.0000   1.0000   1.0000   1.0000   1.0000   1.0000   1.0000
     1.0000   1.0000   1.0000   1.0000   1.0000   1.0000   1.0000   1.0000
     1.0000   1.0000   1.0000   1.0000   1.0000   1.0000   1.0000   1.0000
     1.0000   1.0000   1.0000   1.0000   1.0000   1.0000   1.0000   1.0000
     1.0000   1.0000   1.0000   1.0000   1.0000   1.0000   1.0000   1.0000
     1.0000   1.0000   1.0000   1.0000   1.0000   1.0000   1.0000   1.0000
     1.0000   1.0000   1.0000   1.0000   1.0000   1.0000   1.0000   1.0000
     1.0000   1.0000   1.0000   1.0000   1.0000   1.0000   1.0000   1.0000
     1.0000   1.0000   1.0000   1.0000   1.0000   1.0000   1.0000   1.0000
     1.0000   1.0000   1.0000   1.0000   1.0000   1.0000   1.0000   1.0000
     1.0000   1.0000   1.0000   1.0000   1.0000   1.0000   1.0000   1.0000
     1.0000   1.0000   1.0000   1.0000   1.0000   1.0000   1.0000   1.0000
     1.0000   1.0000   1.0000   1.0000   1.0000   1.0000   1.0000   1.0000
     1.0000   1.0000   1.0000   1.0000   0.9992   0.0002   0.0002   0.0000
     0.0000   0.0000   0.0000   0.0000   0.0000   0.0000   0.0000   0.0000
     0.0000   0.0000   0.0000   0.0000   0.0000   0.0000   0.0000   0.0000
     0.0000   0.0000   0.0000   0.0000   0.0000   0.0000   0.0000   0.0000
     0.0000   0.0000   0.0000   0.0000   0.0000   0.0000   0.0000   0.0000
     0.0000   0.0000   0.0000   0.0000   0.0000   0.0000

          k = 0.0000 0.1925 0.0000 (126305 PWs)   bands (ev):

   -60.3629 -60.3560 -60.3556 -60.3445 -60.3379 -60.3377 -60.3327 -60.3095
   -60.3094 -60.3078 -60.3001 -60.3000 -60.2963 -60.2922 -60.2761 -60.2760
   -34.6588 -34.6568 -34.6135 -34.5994 -34.5914 -34.5888 -34.5693 -34.5616
   -34.5323 -34.5083 -34.4915 -34.4832 -34.4747 -34.4680 -34.4561 -34.4538
   -34.4523 -34.4442 -34.4439 -34.4394 -34.4349 -34.4288 -34.4278 -34.4240
   -34.4209 -34.4053 -34.4053 -34.4033 -34.3971 -34.3951 -34.3877 -34.3874
   -34.3852 -34.3786 -34.3781 -34.3734 -34.3682 -34.3672 -34.3573 -34.3571
   -34.3417 -34.3401 -34.3343 -34.3063 -34.2969 -34.2934 -34.2169 -34.2150
   -13.4390 -12.8940 -12.7924 -12.7476 -12.5593 -12.5119 -12.4255 -12.1593
   -11.9507 -11.9181 -11.8860 -11.8631 -11.8451 -11.8112 -11.7851 -11.7618
   -11.7170 -11.7089 -11.6813 -11.6776 -11.6259 -11.5806 -11.5451 -11.5185
   -11.4994 -11.4821 -11.4674 -11.4451 -11.4368 -11.4027 -11.3839  -5.1636
    -5.0647  -5.0641  -4.9553  -4.5842  -4.5508  -4.5496  -4.5349  -4.5188
    -4.4894  -4.4687  -4.4407  -4.4288  -4.4211  -4.4074  -4.3888  -4.3883
    -4.3002  -4.2680  -4.2509  -4.1641  -4.0944  -4.0856  -3.9101  -3.8883
    -3.4692  -3.4688  -3.4186  -3.3338  -3.3042  -3.2763  -3.2739  -3.1927
    -3.1621  -3.1588  -3.1305  -3.1078  -3.0990  -3.0840  -3.0765  -3.0088
    -3.0031  -2.8996  -2.7594  -2.7523  -2.6939  -2.6756  -2.6444  -2.6420
    -2.5926  -2.5880  -2.5607  -2.5557  -2.5420  -2.3939  -2.2973  -2.2911
    -2.1613  -2.1495  -2.1118  -2.1004  -2.0630  -2.0144  -1.9996  -1.9716
    -1.9262  -1.8009  -1.6361  -1.5989  -1.4368  -1.4124  -1.3183  -1.2942
    -1.2471  -1.2411  -1.2220  -1.2080  -1.1503  -1.1437  -1.0677  -1.0625
    -1.0191  -0.9633  -0.9115  -0.9039  -0.8223  -0.7991  -0.7503  -0.6729
    -0.6617  -0.6118  -0.6030  -0.5138  -0.3305  -0.2626  -0.2281  -0.1582
    -0.1311  -0.1292  -0.0508  -0.0386  -0.0301   0.0145   0.0150   0.0355
     0.1127   0.1865   0.1904   0.4372   0.6665   1.7432   1.7484   2.5687
     2.5837   2.6821   2.6894   2.7109   2.7189   2.7224   2.7316   2.7579
     2.7633   2.7863   2.7941   2.8273   2.8305   2.8665   2.8912   2.9626
     2.9715   3.0063   3.1107   3.1164   3.1879   3.2228   3.2409   3.2532
     3.2836   3.2892   3.3203   3.3424   3.3691   3.3809   3.4209   3.4379
     3.5156   3.5330   3.6076   3.6268   3.6433   3.6458

     occupation numbers 
     1.0000   1.0000   1.0000   1.0000   1.0000   1.0000   1.0000   1.0000
     1.0000   1.0000   1.0000   1.0000   1.0000   1.0000   1.0000   1.0000
     1.0000   1.0000   1.0000   1.0000   1.0000   1.0000   1.0000   1.0000
     1.0000   1.0000   1.0000   1.0000   1.0000   1.0000   1.0000   1.0000
     1.0000   1.0000   1.0000   1.0000   1.0000   1.0000   1.0000   1.0000
     1.0000   1.0000   1.0000   1.0000   1.0000   1.0000   1.0000   1.0000
     1.0000   1.0000   1.0000   1.0000   1.0000   1.0000   1.0000   1.0000
     1.0000   1.0000   1.0000   1.0000   1.0000   1.0000   1.0000   1.0000
     1.0000   1.0000   1.0000   1.0000   1.0000   1.0000   1.0000   1.0000
     1.0000   1.0000   1.0000   1.0000   1.0000   1.0000   1.0000   1.0000
     1.0000   1.0000   1.0000   1.0000   1.0000   1.0000   1.0000   1.0000
     1.0000   1.0000   1.0000   1.0000   1.0000   1.0000   1.0000   1.0000
     1.0000   1.0000   1.0000   1.0000   1.0000   1.0000   1.0000   1.0000
     1.0000   1.0000   1.0000   1.0000   1.0000   1.0000   1.0000   1.0000
     1.0000   1.0000   1.0000   1.0000   1.0000   1.0000   1.0000   1.0000
     1.0000   1.0000   1.0000   1.0000   1.0000   1.0000   1.0000   1.0000
     1.0000   1.0000   1.0000   1.0000   1.0000   1.0000   1.0000   1.0000
     1.0000   1.0000   1.0000   1.0000   1.0000   1.0000   1.0000   1.0000
     1.0000   1.0000   1.0000   1.0000   1.0000   1.0000   1.0000   1.0000
     1.0000   1.0000   1.0000   1.0000   1.0000   1.0000   1.0000   1.0000
     1.0000   1.0000   1.0000   1.0000   1.0000   1.0000   1.0000   1.0000
     1.0000   1.0000   1.0000   1.0000   1.0000   1.0000   1.0000   1.0000
     1.0000   1.0000   1.0000   1.0000   1.0000   1.0000   1.0000   1.0000
     1.0000   1.0000   1.0000   1.0000   1.0000   1.0000   1.0000   1.0000
     1.0000   1.0000   1.0000   1.0000   1.0000   1.0000   1.0000   1.0000
     1.0000   1.0000   1.0000   1.0000   0.9994   0.0002   0.0002   0.0000
     0.0000   0.0000   0.0000   0.0000   0.0000   0.0000   0.0000   0.0000
     0.0000   0.0000   0.0000   0.0000   0.0000   0.0000   0.0000   0.0000
     0.0000   0.0000   0.0000   0.0000   0.0000   0.0000   0.0000   0.0000
     0.0000   0.0000   0.0000   0.0000   0.0000   0.0000   0.0000   0.0000
     0.0000   0.0000   0.0000   0.0000   0.0000   0.0000

          k = 0.0000 0.3849 0.0000 (126328 PWs)   bands (ev):

   -60.3623 -60.3567 -60.3556 -60.3442 -60.3384 -60.3376 -60.3323 -60.3094
   -60.3093 -60.3077 -60.3005 -60.3003 -60.2961 -60.2921 -60.2761 -60.2760
   -34.6516 -34.6433 -34.6101 -34.6060 -34.5950 -34.5906 -34.5714 -34.5539
   -34.5487 -34.5336 -34.5099 -34.4848 -34.4759 -34.4728 -34.4587 -34.4562
   -34.4528 -34.4418 -34.4333 -34.4313 -34.4307 -34.4272 -34.4255 -34.4121
   -34.4082 -34.4057 -34.4041 -34.3971 -34.3919 -34.3909 -34.3889 -34.3854
   -34.3830 -34.3787 -34.3767 -34.3766 -34.3664 -34.3577 -34.3571 -34.3528
   -34.3500 -34.3455 -34.3358 -34.3074 -34.3069 -34.2934 -34.2216 -34.2155
   -13.3663 -13.0843 -12.8524 -12.7988 -12.4022 -12.3666 -12.2142 -12.1310
   -12.0443 -12.0377 -11.9907 -11.9356 -11.8956 -11.8248 -11.7523 -11.7371
   -11.7057 -11.6829 -11.6817 -11.6684 -11.6308 -11.5936 -11.5613 -11.5214
   -11.5021 -11.4752 -11.4645 -11.4455 -11.4371 -11.3727 -11.3476  -5.0585
    -4.9708  -4.9677  -4.8704  -4.7243  -4.6771  -4.6601  -4.6156  -4.6071
    -4.5746  -4.5102  -4.4990  -4.4377  -4.4242  -4.4078  -4.3637  -4.3535
    -4.3072  -4.2479  -4.2274  -4.1708  -4.0300  -3.9350  -3.7421  -3.7116
    -3.5317  -3.4307  -3.4283  -3.3752  -3.3303  -3.3092  -3.3069  -3.2877
    -3.2622  -3.2443  -3.2388  -3.2014  -3.1552  -3.1515  -3.1255  -3.0068
    -2.9355  -2.7977  -2.6962  -2.6821  -2.6526  -2.6373  -2.6274  -2.6267
    -2.5980  -2.5603  -2.5419  -2.4829  -2.4388  -2.4104  -2.3814  -2.3248
    -2.3075  -2.2383  -2.1081  -2.0828  -2.0140  -1.9355  -1.8526  -1.7600
    -1.7476  -1.6835  -1.6808  -1.5784  -1.5745  -1.4684  -1.3837  -1.3654
    -1.3191  -1.3103  -1.2285  -1.2216  -1.1716  -1.1633  -1.1359  -1.1245
    -1.0144  -1.0057  -0.9506  -0.9084  -0.8169  -0.7876  -0.7480  -0.6808
    -0.6169  -0.6056  -0.5012  -0.4639  -0.3849  -0.3121  -0.2703  -0.2357
    -0.2012  -0.1944  -0.0121   0.0064   0.0180   0.0395   0.0515   0.0656
     0.2929   0.3220   0.3287   0.4518   0.6174   1.7431   1.7617   2.4259
     2.4567   2.6064   2.6341   2.6558   2.6884   2.6962   2.7205   2.7398
     2.7576   2.7739   2.8037   2.8450   2.8729   2.8999   2.9313   2.9943
     3.0090   3.0446   3.0643   3.0948   3.1035   3.1216   3.1474   3.1753
     3.2020   3.2533   3.2724   3.3023   3.3429   3.3514   3.3714   3.4667
     3.5112   3.5340   3.5801   3.6557   3.7380   3.7429

     occupation numbers 
     1.0000   1.0000   1.0000   1.0000   1.0000   1.0000   1.0000   1.0000
     1.0000   1.0000   1.0000   1.0000   1.0000   1.0000   1.0000   1.0000
     1.0000   1.0000   1.0000   1.0000   1.0000   1.0000   1.0000   1.0000
     1.0000   1.0000   1.0000   1.0000   1.0000   1.0000   1.0000   1.0000
     1.0000   1.0000   1.0000   1.0000   1.0000   1.0000   1.0000   1.0000
     1.0000   1.0000   1.0000   1.0000   1.0000   1.0000   1.0000   1.0000
     1.0000   1.0000   1.0000   1.0000   1.0000   1.0000   1.0000   1.0000
     1.0000   1.0000   1.0000   1.0000   1.0000   1.0000   1.0000   1.0000
     1.0000   1.0000   1.0000   1.0000   1.0000   1.0000   1.0000   1.0000
     1.0000   1.0000   1.0000   1.0000   1.0000   1.0000   1.0000   1.0000
     1.0000   1.0000   1.0000   1.0000   1.0000   1.0000   1.0000   1.0000
     1.0000   1.0000   1.0000   1.0000   1.0000   1.0000   1.0000   1.0000
     1.0000   1.0000   1.0000   1.0000   1.0000   1.0000   1.0000   1.0000
     1.0000   1.0000   1.0000   1.0000   1.0000   1.0000   1.0000   1.0000
     1.0000   1.0000   1.0000   1.0000   1.0000   1.0000   1.0000   1.0000
     1.0000   1.0000   1.0000   1.0000   1.0000   1.0000   1.0000   1.0000
     1.0000   1.0000   1.0000   1.0000   1.0000   1.0000   1.0000   1.0000
     1.0000   1.0000   1.0000   1.0000   1.0000   1.0000   1.0000   1.0000
     1.0000   1.0000   1.0000   1.0000   1.0000   1.0000   1.0000   1.0000
     1.0000   1.0000   1.0000   1.0000   1.0000   1.0000   1.0000   1.0000
     1.0000   1.0000   1.0000   1.0000   1.0000   1.0000   1.0000   1.0000
     1.0000   1.0000   1.0000   1.0000   1.0000   1.0000   1.0000   1.0000
     1.0000   1.0000   1.0000   1.0000   1.0000   1.0000   1.0000   1.0000
     1.0000   1.0000   1.0000   1.0000   1.0000   1.0000   1.0000   1.0000
     1.0000   1.0000   1.0000   1.0000   1.0000   1.0000   1.0000   1.0000
     1.0000   1.0000   1.0000   1.0000   0.9997   0.0002   0.0002   0.0000
     0.0000   0.0000   0.0000   0.0000   0.0000   0.0000   0.0000   0.0000
     0.0000   0.0000   0.0000   0.0000   0.0000   0.0000   0.0000   0.0000
     0.0000   0.0000   0.0000   0.0000   0.0000   0.0000   0.0000   0.0000
     0.0000   0.0000   0.0000   0.0000   0.0000   0.0000   0.0000   0.0000
     0.0000   0.0000   0.0000   0.0000   0.0000   0.0000

          k = 0.0000-0.5774 0.0000 (126288 PWs)   bands (ev):

   -60.3620 -60.3572 -60.3557 -60.3440 -60.3386 -60.3376 -60.3322 -60.3093
   -60.3092 -60.3077 -60.3007 -60.3004 -60.2959 -60.2921 -60.2762 -60.2760
   -34.6462 -34.6293 -34.6175 -34.6141 -34.5934 -34.5896 -34.5692 -34.5579
   -34.5480 -34.5458 -34.5196 -34.4811 -34.4800 -34.4716 -34.4657 -34.4596
   -34.4530 -34.4426 -34.4323 -34.4270 -34.4248 -34.4218 -34.4213 -34.4077
   -34.4056 -34.4052 -34.3985 -34.3967 -34.3964 -34.3904 -34.3897 -34.3892
   -34.3815 -34.3785 -34.3689 -34.3679 -34.3673 -34.3587 -34.3575 -34.3557
   -34.3553 -34.3378 -34.3369 -34.3162 -34.3082 -34.2932 -34.2242 -34.2158
   -13.2680 -13.2227 -12.8728 -12.8171 -12.2455 -12.2297 -12.2235 -12.1587
   -12.0966 -12.0762 -12.0184 -11.9519 -11.9438 -11.9002 -11.7090 -11.7054
   -11.6987 -11.6760 -11.6665 -11.6628 -11.6579 -11.6013 -11.5959 -11.5520
   -11.4811 -11.4616 -11.4563 -11.4424 -11.4372 -11.3617 -11.3347  -4.9262
    -4.8772  -4.8661  -4.8473  -4.7897  -4.7860  -4.7597  -4.7107  -4.6581
    -4.6575  -4.4958  -4.4932  -4.4499  -4.4383  -4.4143  -4.3405  -4.3293
    -4.2983  -4.2449  -4.2298  -4.1463  -4.0336  -3.8098  -3.7351  -3.5669
    -3.5068  -3.4366  -3.4352  -3.3823  -3.3720  -3.3636  -3.3335  -3.3315
    -3.3056  -3.2943  -3.2814  -3.2403  -3.1969  -3.1740  -3.1303  -2.9900
    -2.9570  -2.6687  -2.6608  -2.6326  -2.6315  -2.6000  -2.5890  -2.5709
    -2.5648  -2.5574  -2.5495  -2.5249  -2.5191  -2.4312  -2.4271  -2.3915
    -2.3572  -2.2301  -2.1074  -2.0368  -2.0207  -1.9286  -1.8531  -1.8290
    -1.6928  -1.5095  -1.4967  -1.4370  -1.4062  -1.3993  -1.3974  -1.3741
    -1.3596  -1.3518  -1.3286  -1.3141  -1.2905  -1.2158  -1.1908  -1.1724
    -1.1652  -1.1623  -0.9594  -0.9315  -0.8069  -0.7233  -0.7023  -0.6551
    -0.6354  -0.5968  -0.4400  -0.4131  -0.3564  -0.3175  -0.2965  -0.2703
    -0.2520  -0.2219   0.0001   0.0324   0.0336   0.0489   0.0689   0.0788
     0.3696   0.3807   0.4017   0.4693   0.5688   1.7425   1.7704   2.3618
     2.4019   2.5685   2.5978   2.6094   2.6590   2.6843   2.7175   2.7407
     2.7600   2.7701   2.8056   2.8379   2.8856   2.9942   3.0038   3.0194
     3.0254   3.0411   3.0466   3.0575   3.0620   3.0735   3.0770   3.1308
     3.1447   3.2039   3.2993   3.3030   3.3253   3.3276   3.3455   3.4981
     3.5179   3.5310   3.6204   3.6613   3.6816   3.7427

     occupation numbers 
     1.0000   1.0000   1.0000   1.0000   1.0000   1.0000   1.0000   1.0000
     1.0000   1.0000   1.0000   1.0000   1.0000   1.0000   1.0000   1.0000
     1.0000   1.0000   1.0000   1.0000   1.0000   1.0000   1.0000   1.0000
     1.0000   1.0000   1.0000   1.0000   1.0000   1.0000   1.0000   1.0000
     1.0000   1.0000   1.0000   1.0000   1.0000   1.0000   1.0000   1.0000
     1.0000   1.0000   1.0000   1.0000   1.0000   1.0000   1.0000   1.0000
     1.0000   1.0000   1.0000   1.0000   1.0000   1.0000   1.0000   1.0000
     1.0000   1.0000   1.0000   1.0000   1.0000   1.0000   1.0000   1.0000
     1.0000   1.0000   1.0000   1.0000   1.0000   1.0000   1.0000   1.0000
     1.0000   1.0000   1.0000   1.0000   1.0000   1.0000   1.0000   1.0000
     1.0000   1.0000   1.0000   1.0000   1.0000   1.0000   1.0000   1.0000
     1.0000   1.0000   1.0000   1.0000   1.0000   1.0000   1.0000   1.0000
     1.0000   1.0000   1.0000   1.0000   1.0000   1.0000   1.0000   1.0000
     1.0000   1.0000   1.0000   1.0000   1.0000   1.0000   1.0000   1.0000
     1.0000   1.0000   1.0000   1.0000   1.0000   1.0000   1.0000   1.0000
     1.0000   1.0000   1.0000   1.0000   1.0000   1.0000   1.0000   1.0000
     1.0000   1.0000   1.0000   1.0000   1.0000   1.0000   1.0000   1.0000
     1.0000   1.0000   1.0000   1.0000   1.0000   1.0000   1.0000   1.0000
     1.0000   1.0000   1.0000   1.0000   1.0000   1.0000   1.0000   1.0000
     1.0000   1.0000   1.0000   1.0000   1.0000   1.0000   1.0000   1.0000
     1.0000   1.0000   1.0000   1.0000   1.0000   1.0000   1.0000   1.0000
     1.0000   1.0000   1.0000   1.0000   1.0000   1.0000   1.0000   1.0000
     1.0000   1.0000   1.0000   1.0000   1.0000   1.0000   1.0000   1.0000
     1.0000   1.0000   1.0000   1.0000   1.0000   1.0000   1.0000   1.0000
     1.0000   1.0000   1.0000   1.0000   1.0000   1.0000   1.0000   1.0000
     1.0000   1.0000   1.0000   1.0000   0.9998   0.0002   0.0001   0.0000
     0.0000   0.0000   0.0000   0.0000   0.0000   0.0000   0.0000   0.0000
     0.0000   0.0000   0.0000   0.0000   0.0000   0.0000   0.0000   0.0000
     0.0000   0.0000   0.0000   0.0000   0.0000   0.0000   0.0000   0.0000
     0.0000   0.0000   0.0000   0.0000   0.0000   0.0000   0.0000   0.0000
     0.0000   0.0000   0.0000   0.0000   0.0000   0.0000

          k = 0.1667 0.2887 0.0000 (126343 PWs)   bands (ev):

   -60.3625 -60.3565 -60.3557 -60.3442 -60.3382 -60.3377 -60.3324 -60.3094
   -60.3093 -60.3078 -60.3004 -60.3002 -60.2961 -60.2921 -60.2761 -60.2760
   -34.6537 -34.6477 -34.6078 -34.6043 -34.5992 -34.5827 -34.5761 -34.5591
   -34.5405 -34.5286 -34.5011 -34.4941 -34.4734 -34.4660 -34.4564 -34.4549
   -34.4532 -34.4422 -34.4385 -34.4339 -34.4303 -34.4278 -34.4258 -34.4245
   -34.4067 -34.4049 -34.4023 -34.3969 -34.3940 -34.3906 -34.3879 -34.3869
   -34.3844 -34.3792 -34.3782 -34.3737 -34.3671 -34.3592 -34.3570 -34.3565
   -34.3472 -34.3443 -34.3356 -34.3077 -34.3027 -34.2939 -34.2203 -34.2155
   -13.3902 -12.9926 -12.9565 -12.6428 -12.5774 -12.3170 -12.3007 -12.1405
   -12.0395 -11.9862 -11.9694 -11.8643 -11.8521 -11.8292 -11.7961 -11.7652
   -11.7472 -11.6993 -11.6914 -11.6261 -11.6001 -11.5882 -11.5364 -11.5301
   -11.5027 -11.4943 -11.4885 -11.4461 -11.4051 -11.3973 -11.3513  -5.0922
    -5.0006  -4.9988  -4.8980  -4.6663  -4.6417  -4.6150  -4.5769  -4.5491
    -4.5414  -4.5218  -4.5080  -4.4889  -4.4480  -4.4419  -4.3860  -4.3611
    -4.2936  -4.2343  -4.2006  -4.0979  -4.0511  -3.9808  -3.8797  -3.7083
    -3.4495  -3.4470  -3.4377  -3.4138  -3.3557  -3.3262  -3.2887  -3.2689
    -3.2316  -3.2252  -3.1870  -3.1740  -3.1335  -3.1160  -3.0535  -2.9766
    -2.9361  -2.8896  -2.8208  -2.7781  -2.6926  -2.6663  -2.6222  -2.5993
    -2.5707  -2.5437  -2.5163  -2.4799  -2.3935  -2.3610  -2.3042  -2.2788
    -2.2574  -2.2341  -2.2132  -2.1443  -2.0546  -1.9566  -1.8709  -1.7766
    -1.7427  -1.7414  -1.6484  -1.6195  -1.5961  -1.4716  -1.3831  -1.3386
    -1.3120  -1.2585  -1.2392  -1.2273  -1.1975  -1.1328  -1.0998  -1.0532
    -0.9974  -0.9642  -0.9511  -0.9188  -0.8273  -0.7974  -0.7367  -0.6814
    -0.6215  -0.5904  -0.5453  -0.5251  -0.3536  -0.3398  -0.2293  -0.1976
    -0.1391  -0.1351  -0.1146  -0.0996  -0.0505   0.0634   0.1218   0.1519
     0.2130   0.2203   0.3426   0.4457   0.6334   1.7388   1.7626   2.4053
     2.5924   2.6061   2.6299   2.6677   2.6822   2.7089   2.7237   2.7436
     2.7677   2.7761   2.8095   2.8322   2.8576   2.8805   2.9240   2.9814
     3.0053   3.0418   3.0695   3.1016   3.1359   3.1530   3.1705   3.1796
     3.2170   3.2338   3.2936   3.3027   3.3039   3.3651   3.3830   3.4634
     3.5312   3.5516   3.6338   3.6842   3.7084   3.7217

     occupation numbers 
     1.0000   1.0000   1.0000   1.0000   1.0000   1.0000   1.0000   1.0000
     1.0000   1.0000   1.0000   1.0000   1.0000   1.0000   1.0000   1.0000
     1.0000   1.0000   1.0000   1.0000   1.0000   1.0000   1.0000   1.0000
     1.0000   1.0000   1.0000   1.0000   1.0000   1.0000   1.0000   1.0000
     1.0000   1.0000   1.0000   1.0000   1.0000   1.0000   1.0000   1.0000
     1.0000   1.0000   1.0000   1.0000   1.0000   1.0000   1.0000   1.0000
     1.0000   1.0000   1.0000   1.0000   1.0000   1.0000   1.0000   1.0000
     1.0000   1.0000   1.0000   1.0000   1.0000   1.0000   1.0000   1.0000
     1.0000   1.0000   1.0000   1.0000   1.0000   1.0000   1.0000   1.0000
     1.0000   1.0000   1.0000   1.0000   1.0000   1.0000   1.0000   1.0000
     1.0000   1.0000   1.0000   1.0000   1.0000   1.0000   1.0000   1.0000
     1.0000   1.0000   1.0000   1.0000   1.0000   1.0000   1.0000   1.0000
     1.0000   1.0000   1.0000   1.0000   1.0000   1.0000   1.0000   1.0000
     1.0000   1.0000   1.0000   1.0000   1.0000   1.0000   1.0000   1.0000
     1.0000   1.0000   1.0000   1.0000   1.0000   1.0000   1.0000   1.0000
     1.0000   1.0000   1.0000   1.0000   1.0000   1.0000   1.0000   1.0000
     1.0000   1.0000   1.0000   1.0000   1.0000   1.0000   1.0000   1.0000
     1.0000   1.0000   1.0000   1.0000   1.0000   1.0000   1.0000   1.0000
     1.0000   1.0000   1.0000   1.0000   1.0000   1.0000   1.0000   1.0000
     1.0000   1.0000   1.0000   1.0000   1.0000   1.0000   1.0000   1.0000
     1.0000   1.0000   1.0000   1.0000   1.0000   1.0000   1.0000   1.0000
     1.0000   1.0000   1.0000   1.0000   1.0000   1.0000   1.0000   1.0000
     1.0000   1.0000   1.0000   1.0000   1.0000   1.0000   1.0000   1.0000
     1.0000   1.0000   1.0000   1.0000   1.0000   1.0000   1.0000   1.0000
     1.0000   1.0000   1.0000   1.0000   1.0000   1.0000   1.0000   1.0000
     1.0000   1.0000   1.0000   1.0000   0.9996   0.0002   0.0002   0.0000
     0.0000   0.0000   0.0000   0.0000   0.0000   0.0000   0.0000   0.0000
     0.0000   0.0000   0.0000   0.0000   0.0000   0.0000   0.0000   0.0000
     0.0000   0.0000   0.0000   0.0000   0.0000   0.0000   0.0000   0.0000
     0.0000   0.0000   0.0000   0.0000   0.0000   0.0000   0.0000   0.0000
     0.0000   0.0000   0.0000   0.0000   0.0000   0.0000

          k = 0.1667 0.4811 0.0000 (126406 PWs)   bands (ev):

   -60.3620 -60.3571 -60.3557 -60.3440 -60.3385 -60.3376 -60.3322 -60.3094
   -60.3092 -60.3077 -60.3006 -60.3004 -60.2959 -60.2921 -60.2762 -60.2760
   -34.6459 -34.6331 -34.6152 -34.6058 -34.6003 -34.5869 -34.5731 -34.5614
   -34.5556 -34.5310 -34.5168 -34.4974 -34.4722 -34.4715 -34.4590 -34.4546
   -34.4490 -34.4425 -34.4412 -34.4326 -34.4273 -34.4244 -34.4207 -34.4081
   -34.4066 -34.4045 -34.4015 -34.3978 -34.3916 -34.3899 -34.3873 -34.3835
   -34.3799 -34.3783 -34.3726 -34.3711 -34.3639 -34.3578 -34.3574 -34.3557
   -34.3537 -34.3420 -34.3371 -34.3160 -34.3069 -34.2941 -34.2236 -34.2162
   -13.2963 -13.1517 -13.0130 -12.6500 -12.4317 -12.2427 -12.1616 -12.1143
   -12.0845 -12.0501 -12.0059 -11.9762 -11.8927 -11.8493 -11.8113 -11.7696
   -11.7510 -11.6864 -11.6424 -11.6229 -11.6086 -11.5813 -11.5687 -11.5467
   -11.5062 -11.5003 -11.4745 -11.4213 -11.4080 -11.3766 -11.3299  -4.9620
    -4.8880  -4.8805  -4.7953  -4.7832  -4.7550  -4.7133  -4.6824  -4.6413
    -4.6258  -4.6032  -4.5556  -4.5017  -4.4856  -4.4136  -4.3642  -4.3490
    -4.2722  -4.2530  -4.1035  -4.0546  -3.9667  -3.8752  -3.7800  -3.6585
    -3.5742  -3.4184  -3.4075  -3.3836  -3.3535  -3.3403  -3.3243  -3.3085
    -3.2957  -3.2794  -3.2670  -3.2325  -3.2269  -3.1421  -3.1015  -3.0035
    -2.9155  -2.8193  -2.7434  -2.6953  -2.6599  -2.6275  -2.5981  -2.5761
    -2.5465  -2.5133  -2.4985  -2.4792  -2.4507  -2.4256  -2.3945  -2.3784
    -2.3000  -2.2559  -2.1582  -2.0322  -1.9990  -1.8641  -1.8143  -1.7707
    -1.6946  -1.6726  -1.6040  -1.4985  -1.4794  -1.4480  -1.3958  -1.3609
    -1.3540  -1.3385  -1.3047  -1.2616  -1.2208  -1.2095  -1.1625  -1.1221
    -1.0868  -1.0310  -0.9939  -0.9683  -0.8911  -0.7976  -0.7619  -0.6899
    -0.5717  -0.5501  -0.4535  -0.4343  -0.3291  -0.3029  -0.2614  -0.2416
    -0.2222  -0.1892  -0.1091  -0.0955  -0.0548   0.1073   0.1472   0.2158
     0.2868   0.3579   0.4435   0.4645   0.5758   1.7325   1.7815   2.2809
     2.5269   2.5358   2.5976   2.6269   2.6664   2.6847   2.7087   2.7226
     2.7626   2.7892   2.7975   2.8309   2.8888   2.9545   2.9838   3.0001
     3.0245   3.0418   3.0592   3.0728   3.0844   3.1052   3.1113   3.1241
     3.1563   3.1675   3.1946   3.2386   3.3039   3.3442   3.4126   3.4486
     3.5310   3.5837   3.6735   3.7146   3.7535   3.7653

     occupation numbers 
     1.0000   1.0000   1.0000   1.0000   1.0000   1.0000   1.0000   1.0000
     1.0000   1.0000   1.0000   1.0000   1.0000   1.0000   1.0000   1.0000
     1.0000   1.0000   1.0000   1.0000   1.0000   1.0000   1.0000   1.0000
     1.0000   1.0000   1.0000   1.0000   1.0000   1.0000   1.0000   1.0000
     1.0000   1.0000   1.0000   1.0000   1.0000   1.0000   1.0000   1.0000
     1.0000   1.0000   1.0000   1.0000   1.0000   1.0000   1.0000   1.0000
     1.0000   1.0000   1.0000   1.0000   1.0000   1.0000   1.0000   1.0000
     1.0000   1.0000   1.0000   1.0000   1.0000   1.0000   1.0000   1.0000
     1.0000   1.0000   1.0000   1.0000   1.0000   1.0000   1.0000   1.0000
     1.0000   1.0000   1.0000   1.0000   1.0000   1.0000   1.0000   1.0000
     1.0000   1.0000   1.0000   1.0000   1.0000   1.0000   1.0000   1.0000
     1.0000   1.0000   1.0000   1.0000   1.0000   1.0000   1.0000   1.0000
     1.0000   1.0000   1.0000   1.0000   1.0000   1.0000   1.0000   1.0000
     1.0000   1.0000   1.0000   1.0000   1.0000   1.0000   1.0000   1.0000
     1.0000   1.0000   1.0000   1.0000   1.0000   1.0000   1.0000   1.0000
     1.0000   1.0000   1.0000   1.0000   1.0000   1.0000   1.0000   1.0000
     1.0000   1.0000   1.0000   1.0000   1.0000   1.0000   1.0000   1.0000
     1.0000   1.0000   1.0000   1.0000   1.0000   1.0000   1.0000   1.0000
     1.0000   1.0000   1.0000   1.0000   1.0000   1.0000   1.0000   1.0000
     1.0000   1.0000   1.0000   1.0000   1.0000   1.0000   1.0000   1.0000
     1.0000   1.0000   1.0000   1.0000   1.0000   1.0000   1.0000   1.0000
     1.0000   1.0000   1.0000   1.0000   1.0000   1.0000   1.0000   1.0000
     1.0000   1.0000   1.0000   1.0000   1.0000   1.0000   1.0000   1.0000
     1.0000   1.0000   1.0000   1.0000   1.0000   1.0000   1.0000   1.0000
     1.0000   1.0000   1.0000   1.0000   1.0000   1.0000   1.0000   1.0000
     1.0000   1.0000   1.0000   1.0000   0.9998   0.0002   0.0001   0.0000
     0.0000   0.0000   0.0000   0.0000   0.0000   0.0000   0.0000   0.0000
     0.0000   0.0000   0.0000   0.0000   0.0000   0.0000   0.0000   0.0000
     0.0000   0.0000   0.0000   0.0000   0.0000   0.0000   0.0000   0.0000
     0.0000   0.0000   0.0000   0.0000   0.0000   0.0000   0.0000   0.0000
     0.0000   0.0000   0.0000   0.0000   0.0000   0.0000

          k = 0.3333 0.5774 0.0000 (126429 PWs)   bands (ev):

   -60.3618 -60.3573 -60.3558 -60.3440 -60.3386 -60.3376 -60.3321 -60.3094
   -60.3091 -60.3077 -60.3006 -60.3006 -60.2959 -60.2920 -60.2762 -60.2760
   -34.6413 -34.6292 -34.6167 -34.6036 -34.5970 -34.5931 -34.5822 -34.5617
   -34.5564 -34.5250 -34.5222 -34.5037 -34.4708 -34.4683 -34.4588 -34.4564
   -34.4562 -34.4410 -34.4322 -34.4275 -34.4262 -34.4238 -34.4232 -34.4217
   -34.4075 -34.4040 -34.3978 -34.3919 -34.3914 -34.3877 -34.3875 -34.3828
   -34.3788 -34.3760 -34.3717 -34.3641 -34.3619 -34.3592 -34.3584 -34.3569
   -34.3553 -34.3436 -34.3326 -34.3240 -34.3070 -34.2948 -34.2242 -34.2169
   -13.2022 -13.1907 -13.1295 -12.4791 -12.4741 -12.3895 -12.0807 -12.0584
   -12.0501 -11.9924 -11.9874 -11.9635 -11.9535 -11.9526 -11.8332 -11.7856
   -11.7760 -11.7214 -11.6025 -11.5945 -11.5650 -11.5643 -11.5616 -11.5565
   -11.5525 -11.5362 -11.4700 -11.3976 -11.3937 -11.3903 -11.3216  -4.8533
    -4.7966  -4.7956  -4.7838  -4.7779  -4.7635  -4.7565  -4.7564  -4.6885
    -4.6847  -4.6759  -4.6086  -4.5960  -4.4881  -4.4383  -4.3685  -4.3162
    -4.2622  -4.2595  -3.9508  -3.9330  -3.8688  -3.8524  -3.8519  -3.7565
    -3.6944  -3.4422  -3.3690  -3.3681  -3.3644  -3.3532  -3.3257  -3.3028
    -3.2956  -3.2857  -3.2812  -3.2421  -3.1792  -3.1782  -3.0437  -3.0207
    -2.9570  -2.8173  -2.7367  -2.6324  -2.6227  -2.6006  -2.5920  -2.5791
    -2.5711  -2.5575  -2.5337  -2.5179  -2.5168  -2.5123  -2.4522  -2.3826
    -2.1669  -2.1644  -2.0491  -2.0190  -2.0130  -1.7989  -1.7748  -1.7469
    -1.7358  -1.6823  -1.5959  -1.5375  -1.5044  -1.4926  -1.4750  -1.4218
    -1.3365  -1.3049  -1.2662  -1.2211  -1.1824  -1.0794  -1.0786  -1.0707
    -1.0628  -1.0564  -1.0512  -1.0511  -1.0395  -1.0243  -0.7721  -0.6596
    -0.5550  -0.4856  -0.4487  -0.4044  -0.2819  -0.2437  -0.2428  -0.2214
    -0.2169  -0.2056  -0.1797  -0.1630  -0.1202   0.1614   0.1731   0.2519
     0.3330   0.3830   0.4272   0.5131   0.5468   1.7241   1.7954   2.2149
     2.4955   2.5753   2.5811   2.6378   2.6540   2.6588   2.6990   2.7269
     2.7429   2.7915   2.7944   2.8181   2.9576   2.9636   2.9893   2.9984
     3.0393   3.0454   3.0466   3.0642   3.0669   3.0692   3.0792   3.1111
     3.1324   3.1469   3.1853   3.2111   3.2522   3.2919   3.3730   3.5502
     3.5552   3.6582   3.6778   3.6842   3.7682   3.8107

     occupation numbers 
     1.0000   1.0000   1.0000   1.0000   1.0000   1.0000   1.0000   1.0000
     1.0000   1.0000   1.0000   1.0000   1.0000   1.0000   1.0000   1.0000
     1.0000   1.0000   1.0000   1.0000   1.0000   1.0000   1.0000   1.0000
     1.0000   1.0000   1.0000   1.0000   1.0000   1.0000   1.0000   1.0000
     1.0000   1.0000   1.0000   1.0000   1.0000   1.0000   1.0000   1.0000
     1.0000   1.0000   1.0000   1.0000   1.0000   1.0000   1.0000   1.0000
     1.0000   1.0000   1.0000   1.0000   1.0000   1.0000   1.0000   1.0000
     1.0000   1.0000   1.0000   1.0000   1.0000   1.0000   1.0000   1.0000
     1.0000   1.0000   1.0000   1.0000   1.0000   1.0000   1.0000   1.0000
     1.0000   1.0000   1.0000   1.0000   1.0000   1.0000   1.0000   1.0000
     1.0000   1.0000   1.0000   1.0000   1.0000   1.0000   1.0000   1.0000
     1.0000   1.0000   1.0000   1.0000   1.0000   1.0000   1.0000   1.0000
     1.0000   1.0000   1.0000   1.0000   1.0000   1.0000   1.0000   1.0000
     1.0000   1.0000   1.0000   1.0000   1.0000   1.0000   1.0000   1.0000
     1.0000   1.0000   1.0000   1.0000   1.0000   1.0000   1.0000   1.0000
     1.0000   1.0000   1.0000   1.0000   1.0000   1.0000   1.0000   1.0000
     1.0000   1.0000   1.0000   1.0000   1.0000   1.0000   1.0000   1.0000
     1.0000   1.0000   1.0000   1.0000   1.0000   1.0000   1.0000   1.0000
     1.0000   1.0000   1.0000   1.0000   1.0000   1.0000   1.0000   1.0000
     1.0000   1.0000   1.0000   1.0000   1.0000   1.0000   1.0000   1.0000
     1.0000   1.0000   1.0000   1.0000   1.0000   1.0000   1.0000   1.0000
     1.0000   1.0000   1.0000   1.0000   1.0000   1.0000   1.0000   1.0000
     1.0000   1.0000   1.0000   1.0000   1.0000   1.0000   1.0000   1.0000
     1.0000   1.0000   1.0000   1.0000   1.0000   1.0000   1.0000   1.0000
     1.0000   1.0000   1.0000   1.0000   1.0000   1.0000   1.0000   1.0000
     1.0000   1.0000   1.0000   0.9999   0.9999   0.0003   0.0001   0.0000
     0.0000   0.0000   0.0000   0.0000   0.0000   0.0000   0.0000   0.0000
     0.0000   0.0000   0.0000   0.0000   0.0000   0.0000   0.0000   0.0000
     0.0000   0.0000   0.0000   0.0000   0.0000   0.0000   0.0000   0.0000
     0.0000   0.0000   0.0000   0.0000   0.0000   0.0000   0.0000   0.0000
     0.0000   0.0000   0.0000   0.0000   0.0000   0.0000

     the Fermi energy is     1.1665 ev

!    total energy              =   -2979.42706269 Ry
     estimated scf accuracy    <          4.9E-11 Ry
     smearing contrib. (-TS)   =      -0.00007028 Ry
     internal energy E=F+TS    =   -2979.42699241 Ry

     The total energy is F=E-TS. E is the sum of the following terms:
     one-electron contribution =  -11135.54449693 Ry
     hartree contribution      =    5595.42221101 Ry
     xc contribution           =    -571.47974992 Ry
     ewald contribution        =    3132.17504343 Ry

     total magnetization       =     0.00 Bohr mag/cell
     absolute magnetization    =     0.00 Bohr mag/cell

     convergence has been achieved in  12 iterations

     negative rho (up, down):  1.432E-03 1.432E-03

     Forces acting on atoms (cartesian axes, Ry/au):

     atom    1 type  1   force =    -0.00029455   -0.00040625    0.00004255
     atom    2 type  1   force =    -0.00049910   -0.00005196    0.00004255
     atom    3 type  1   force =     0.00000000    0.00009219    0.00020499
     atom    4 type  1   force =     0.00007984   -0.00004609    0.00020499
     atom    5 type  1   force =     0.00000000    0.00019110    0.00000002
     atom    6 type  1   force =     0.00001856    0.00001072   -0.00105173
     atom    7 type  1   force =     0.00016550   -0.00009555    0.00000002
     atom    8 type  1   force =    -0.00007984   -0.00004609    0.00020499
     atom    9 type  1   force =     0.00029455   -0.00040625    0.00004255
     atom   10 type  1   force =    -0.00001856    0.00001072   -0.00105173
     atom   11 type  1   force =     0.00000000   -0.00002143   -0.00105173
     atom   12 type  1   force =    -0.00020455    0.00045821    0.00004255
     atom   13 type  1   force =     0.00000000    0.00000000    0.00086575
     atom   14 type  1   force =     0.00049910   -0.00005196    0.00004255
     atom   15 type  1   force =    -0.00016550   -0.00009555    0.00000002
     atom   16 type  1   force =     0.00020455    0.00045821    0.00004255
     atom   17 type  2   force =     0.00015515    0.00008958    0.00040023
     atom   18 type  2   force =    -0.00000000    0.00004684    0.00008001
     atom   19 type  2   force =     0.00010254    0.00005920    0.00017460
     atom   20 type  2   force =     0.00004057   -0.00002342    0.00008001
     atom   21 type  2   force =     0.00042385    0.00000851   -0.00024338
     atom   22 type  2   force =     0.00021929    0.00036282   -0.00024338
     atom   23 type  2   force =    -0.00010254    0.00005920    0.00017460
     atom   24 type  2   force =    -0.00000000   -0.00011841    0.00017460
     atom   25 type  2   force =    -0.00042385    0.00000851   -0.00024338
     atom   26 type  2   force =    -0.00020456   -0.00037132   -0.00024338
     atom   27 type  2   force =    -0.00004057   -0.00002342    0.00008001
     atom   28 type  2   force =    -0.00015515    0.00008958    0.00040023
     atom   29 type  2   force =    -0.00021929    0.00036282   -0.00024338
     atom   30 type  2   force =     0.00020456   -0.00037132   -0.00024338
     atom   31 type  2   force =    -0.00000000   -0.00017915    0.00040023
     atom   32 type  2   force =    -0.00058749   -0.00033919    0.00043987
     atom   33 type  2   force =     0.00000000    0.00017353   -0.00004668
     atom   34 type  2   force =     0.00046719    0.00026973    0.00005423
     atom   35 type  2   force =     0.00015028   -0.00008676   -0.00004668
     atom   36 type  2   force =    -0.00056285   -0.00036124   -0.00028463
     atom   37 type  2   force =    -0.00059427   -0.00030682   -0.00028463
     atom   38 type  2   force =    -0.00046719    0.00026973    0.00005423
     atom   39 type  2   force =     0.00000000   -0.00053947    0.00005423
     atom   40 type  2   force =     0.00056285   -0.00036124   -0.00028463
     atom   41 type  2   force =     0.00000000    0.00000000    0.00128037
     atom   42 type  2   force =    -0.00003142    0.00066807   -0.00028463
     atom   43 type  2   force =    -0.00015028   -0.00008676   -0.00004668
     atom   44 type  2   force =     0.00058749   -0.00033919    0.00043987
     atom   45 type  2   force =     0.00059427   -0.00030682   -0.00028463
     atom   46 type  2   force =     0.00003142    0.00066807   -0.00028463
     atom   47 type  2   force =     0.00000000    0.00067837    0.00043987
     The non-local contrib.  to forces
     atom    1 type  1   force =    -0.00091874    0.00617634    0.00068487
     atom    2 type  1   force =     0.00488950   -0.00388382    0.00068487
     atom    3 type  1   force =     0.00000000    0.00090796   -0.00111734
     atom    4 type  1   force =     0.00078631   -0.00045398   -0.00111734
     atom    5 type  1   force =     0.00000000   -0.00423594    0.00328766
     atom    6 type  1   force =     0.01260623    0.00727821   -0.03062205
     atom    7 type  1   force =    -0.00366843    0.00211797    0.00328766
     atom    8 type  1   force =    -0.00078631   -0.00045398   -0.00111734
     atom    9 type  1   force =     0.00091874    0.00617634    0.00068487
     atom   10 type  1   force =    -0.01260623    0.00727821   -0.03062205
     atom   11 type  1   force =     0.00000000   -0.01455642   -0.03062205
     atom   12 type  1   force =     0.00580824   -0.00229252    0.00068487
     atom   13 type  1   force =     0.00000000    0.00000000   -0.00190062
     atom   14 type  1   force =    -0.00488950   -0.00388382    0.00068487
     atom   15 type  1   force =     0.00366843    0.00211797    0.00328766
     atom   16 type  1   force =    -0.00580824   -0.00229252    0.00068487
     atom   17 type  2   force =     0.00100764    0.00058176   -0.28355471
     atom   18 type  2   force =     0.00000000   -0.00283332   -0.28115016
     atom   19 type  2   force =    -0.00050554   -0.00029187   -0.28366115
     atom   20 type  2   force =    -0.00245373    0.00141666   -0.28115016
     atom   21 type  2   force =    -0.00946392   -0.00820529   -0.26803082
     atom   22 type  2   force =    -0.01183795   -0.00409334   -0.26803082
     atom   23 type  2   force =     0.00050554   -0.00029187   -0.28366115
     atom   24 type  2   force =     0.00000000    0.00058374   -0.28366115
     atom   25 type  2   force =     0.00946392   -0.00820529   -0.26803082
     atom   26 type  2   force =    -0.00237403    0.01229864   -0.26803082
     atom   27 type  2   force =     0.00245373    0.00141666   -0.28115016
     atom   28 type  2   force =    -0.00100764    0.00058176   -0.28355471
     atom   29 type  2   force =     0.01183795   -0.00409334   -0.26803082
     atom   30 type  2   force =     0.00237403    0.01229864   -0.26803082
     atom   31 type  2   force =     0.00000000   -0.00116353   -0.28355471
     atom   32 type  2   force =     0.00024667    0.00014241    0.28067732
     atom   33 type  2   force =     0.00000000    0.00322691    0.28164786
     atom   34 type  2   force =     0.00077397    0.00044685    0.28023355
     atom   35 type  2   force =     0.00279459   -0.00161346    0.28164786
     atom   36 type  2   force =     0.00346946    0.00174681    0.28075009
     atom   37 type  2   force =     0.00324751    0.00213123    0.28075009
     atom   38 type  2   force =    -0.00077397    0.00044685    0.28023355
     atom   39 type  2   force =    -0.00000000   -0.00089370    0.28023355
     atom   40 type  2   force =    -0.00346946    0.00174681    0.28075009
     atom   41 type  2   force =     0.00000000   -0.00000000    0.28182800
     atom   42 type  2   force =    -0.00022195   -0.00387804    0.28075009
     atom   43 type  2   force =    -0.00279459   -0.00161346    0.28164786
     atom   44 type  2   force =    -0.00024667    0.00014241    0.28067732
     atom   45 type  2   force =    -0.00324751    0.00213123    0.28075009
     atom   46 type  2   force =     0.00022195   -0.00387804    0.28075009
     atom   47 type  2   force =    -0.00000000   -0.00028483    0.28067732
     The ionic contribution  to forces
     atom    1 type  1   force =     0.68344426    0.29874540    1.54249336
     atom    2 type  1   force =     0.60042346    0.44254153    1.54249001
     atom    3 type  1   force =     0.00003141    0.13755798    0.63663403
     atom    4 type  1   force =     0.11914614   -0.06879049    0.63663520
     atom    5 type  1   force =     0.00001841    0.55115429    0.52970224
     atom    6 type  1   force =     3.47320970    2.00526477    3.56069567
     atom    7 type  1   force =     0.47726499   -0.27555387    0.52970009
     atom    8 type  1   force =    -0.11911584   -0.06880268    0.63663745
     atom    9 type  1   force =    -0.68344974    0.29876085    1.54248965
     atom   10 type  1   force =    -3.47314378    2.00524938    3.56069034
     atom   11 type  1   force =     0.00001257   -4.01052556    3.56069892
     atom   12 type  1   force =    -0.08304501   -0.74124955    1.54248726
     atom   13 type  1   force =    -0.00001792    0.00001904    1.10954466
     atom   14 type  1   force =    -0.60047814    0.44252633    1.54248896
     atom   15 type  1   force =    -0.47731544   -0.27562185    0.52970522
     atom   16 type  1   force =     0.08301947   -0.74126463    1.54248415
     atom   17 type  2   force =     0.28705011    0.16572373   32.58265207
     atom   18 type  2   force =     0.00000342    0.06196909   32.46899447
     atom   19 type  2   force =    -0.23976031   -0.13843056   32.19935302
     atom   20 type  2   force =     0.05365920   -0.03097823   32.46901306
     atom   21 type  2   force =     0.57291047    1.24781218   32.44118260
     atom   22 type  2   force =     1.36709129   -0.12774396   32.44117551
     atom   23 type  2   force =     0.23976269   -0.13843248   32.19933676
     atom   24 type  2   force =     0.00000270    0.27684829   32.19935175
     atom   25 type  2   force =    -0.57290296    1.24783129   32.44117389
     atom   26 type  2   force =     0.79417877   -1.12006638   32.44117552
     atom   27 type  2   force =    -0.05366341   -0.03098552   32.46899267
     atom   28 type  2   force =    -0.28705203    0.16572687   32.58264311
     atom   29 type  2   force =    -1.36710450   -0.12775663   32.44116129
     atom   30 type  2   force =    -0.79417822   -1.12007084   32.44117795
     atom   31 type  2   force =    -0.00000086   -0.33145078   32.58265906
     atom   32 type  2   force =    -0.05343811   -0.03085520  -31.92619625
     atom   33 type  2   force =     0.00000312   -0.02611381  -31.90806157
     atom   34 type  2   force =     0.00505271    0.00290978  -31.92255786
     atom   35 type  2   force =    -0.02262319    0.01305889  -31.90808520
     atom   36 type  2   force =    -0.08671294   -0.17115386  -31.97248198
     atom   37 type  2   force =    -0.19158319    0.01048856  -31.97247442
     atom   38 type  2   force =    -0.00504546    0.00290767  -31.92254220
     atom   39 type  2   force =     0.00000320   -0.00583290  -31.92255649
     atom   40 type  2   force =     0.08671872   -0.17113078  -31.97247604
     atom   41 type  2   force =     0.00001390   -0.00000267  -31.84032606
     atom   42 type  2   force =    -0.10487488    0.16066921  -31.97247475
     atom   43 type  2   force =     0.02261916    0.01305570  -31.90805974
     atom   44 type  2   force =     0.05343407   -0.03085258  -31.92618238
     atom   45 type  2   force =     0.19156336    0.01047419  -31.97246344
     atom   46 type  2   force =     0.10487004    0.16066465  -31.97247796
     atom   47 type  2   force =    -0.00000141    0.06170612  -31.92620357
     The local contribution  to forces
     atom    1 type  1   force =    -0.68319777   -0.30501997   -1.54323122
     atom    2 type  1   force =    -0.60586635   -0.43910541   -1.54323083
     atom    3 type  1   force =     0.00013500   -0.13849198   -0.63530952
     atom    4 type  1   force =    -0.11982210    0.06909496   -0.63530888
     atom    5 type  1   force =     0.00006547   -0.54662448   -0.53264547
     atom    6 type  1   force =    -3.48553988   -2.01231059   -3.53424201
     atom    7 type  1   force =    -0.47348769    0.27330889   -0.53264565
     atom    8 type  1   force =     0.11995360    0.06909515   -0.63530930
     atom    9 type  1   force =     0.68319246   -0.30515723   -1.54323048
     atom   10 type  1   force =     3.48567472   -2.01244915   -3.53424859
     atom   11 type  1   force =    -0.00007001    4.02461389   -3.53423543
     atom   12 type  1   force =     0.07726150    0.74411648   -1.54323069
     atom   13 type  1   force =    -0.00014151    0.00004728   -1.10690054
     atom   14 type  1   force =     0.60572206   -0.43910532   -1.54322993
     atom   15 type  1   force =     0.47334305    0.27303249   -0.53264346
     atom   16 type  1   force =    -0.07740530    0.74397732   -1.54323046
     atom   17 type  2   force =    -0.28784837   -0.16619972  -32.31329279
     atom   18 type  2   force =    -0.00000010   -0.05927043  -32.20224821
     atom   19 type  2   force =     0.24030011    0.13873752  -31.93013488
     atom   20 type  2   force =    -0.05133459    0.02964075  -32.20226474
     atom   21 type  2   force =    -0.56363233   -1.24008744  -32.18710883
     atom   22 type  2   force =    -1.35575836    0.13192487  -32.18709285
     atom   23 type  2   force =    -0.24030755    0.13873810  -31.93013477
     atom   24 type  2   force =    -0.00000006   -0.27748466  -31.93013463
     atom   25 type  2   force =     0.56363147   -1.24006264  -32.18712438
     atom   26 type  2   force =    -0.79212175    1.10815321  -32.18709264
     atom   27 type  2   force =     0.05132775    0.02963407  -32.20224818
     atom   28 type  2   force =     0.28784809   -0.16619189  -32.31329280
     atom   29 type  2   force =     1.35574247    0.13191787  -32.18712460
     atom   30 type  2   force =     0.79212971    1.10815325  -32.18710876
     atom   31 type  2   force =     0.00000342    0.33238283  -32.31329299
     atom   32 type  2   force =     0.05260229    0.03035997   31.66036560
     atom   33 type  2   force =     0.00000023    0.02322119   31.64084740
     atom   34 type  2   force =    -0.00530931   -0.00306961   31.65680050
     atom   35 type  2   force =     0.02010444   -0.01161040   31.64088054
     atom   36 type  2   force =     0.08283425    0.16906773   31.70586173
     atom   37 type  2   force =     0.18783618   -0.01279616   31.70584524
     atom   38 type  2   force =     0.00530980   -0.00306961   31.65680046
     atom   39 type  2   force =     0.00000023    0.00613204   31.65680028
     atom   40 type  2   force =    -0.08283341    0.16908949   31.70587860
     atom   41 type  2   force =     0.00001095   -0.00000641   31.57407899
     atom   42 type  2   force =     0.10499848   -0.15627745   31.70584473
     atom   43 type  2   force =    -0.02011134   -0.01161043   31.64084688
     atom   44 type  2   force =    -0.05260174    0.03036732   31.66034878
     atom   45 type  2   force =    -0.18785011   -0.01280382   31.70587868
     atom   46 type  2   force =    -0.10499803   -0.15627746   31.70586141
     atom   47 type  2   force =     0.00000395   -0.06074062   31.66036534
     The core correction contribution to forces
     atom    1 type  1   force =     0.00029711   -0.00024610    0.00009265
     atom    2 type  1   force =    -0.00006400    0.00038115    0.00009266
     atom    3 type  1   force =    -0.00000167    0.00003149   -0.00001170
     atom    4 type  1   force =     0.00002506   -0.00001284   -0.00001169
     atom    5 type  1   force =    -0.00000085   -0.00012345   -0.00035039
     atom    6 type  1   force =    -0.00024960   -0.00014398    0.00311053
     atom    7 type  1   force =    -0.00010656    0.00006302   -0.00035043
     atom    8 type  1   force =    -0.00002677   -0.00001280   -0.00001168
     atom    9 type  1   force =    -0.00029723   -0.00024445    0.00009261
     atom   10 type  1   force =     0.00024781   -0.00014236    0.00311047
     atom   11 type  1   force =     0.00000071    0.00029049    0.00311048
     atom   12 type  1   force =    -0.00036037   -0.00013250    0.00009255
     atom   13 type  1   force =     0.00000152    0.00000024    0.00011595
     atom   14 type  1   force =     0.00006547    0.00038116    0.00009262
     atom   15 type  1   force =     0.00010803    0.00006618   -0.00035047
     atom   16 type  1   force =     0.00036186   -0.00013094    0.00009256
     atom   17 type  2   force =    -0.00005028   -0.00002695    0.01459499
     atom   18 type  2   force =     0.00000008    0.00018773    0.01448260
     atom   19 type  2   force =     0.00006375    0.00003771    0.01462290
     atom   20 type  2   force =     0.00016241   -0.00009328    0.01448351
     atom   21 type  2   force =     0.00060435    0.00047445    0.01371980
     atom   22 type  2   force =     0.00071200    0.00028746    0.01371891
     atom   23 type  2   force =    -0.00006272    0.00003772    0.01462289
     atom   24 type  2   force =     0.00000008   -0.00007167    0.01462288
     atom   25 type  2   force =    -0.00060419    0.00047189    0.01372073
     atom   26 type  2   force =     0.00010730   -0.00075822    0.01371892
     atom   27 type  2   force =    -0.00016142   -0.00009240    0.01448259
     atom   28 type  2   force =     0.00005045   -0.00002780    0.01459499
     atom   29 type  2   force =    -0.00071013    0.00028832    0.01372075
     atom   30 type  2   force =    -0.00010797   -0.00075824    0.01371982
     atom   31 type  2   force =    -0.00000035    0.00005842    0.01459499
     atom   32 type  2   force =     0.00000252    0.00000356   -0.01440619
     atom   33 type  2   force =     0.00000010   -0.00015523   -0.01448746
     atom   34 type  2   force =    -0.00004468   -0.00002438   -0.01443102
     atom   35 type  2   force =    -0.00013456    0.00007912   -0.01448929
     atom   36 type  2   force =    -0.00015897   -0.00003316   -0.01442444
     atom   37 type  2   force =    -0.00010929   -0.00011980   -0.01442352
     atom   38 type  2   force =     0.00004489   -0.00002439   -0.01443101
     atom   39 type  2   force =     0.00000010    0.00005263   -0.01443101
     atom   40 type  2   force =     0.00015919   -0.00003568   -0.01442537
     atom   41 type  2   force =    -0.00000118    0.00000181   -0.01430514
     atom   42 type  2   force =     0.00005018    0.00015671   -0.01442354
     atom   43 type  2   force =     0.00013560    0.00007913   -0.01448747
     atom   44 type  2   force =    -0.00000233    0.00000273   -0.01440528
     atom   45 type  2   force =     0.00011118   -0.00011897   -0.01442538
     atom   46 type  2   force =    -0.00005000    0.00015672   -0.01442447
     atom   47 type  2   force =    -0.00000032   -0.00000168   -0.01440621
     The Hubbard contrib.    to forces
     atom    1 type  1   force =     0.00000000    0.00000000    0.00000000
     atom    2 type  1   force =     0.00000000    0.00000000    0.00000000
     atom    3 type  1   force =     0.00000000    0.00000000    0.00000000
     atom    4 type  1   force =     0.00000000    0.00000000    0.00000000
     atom    5 type  1   force =     0.00000000    0.00000000    0.00000000
     atom    6 type  1   force =     0.00000000    0.00000000    0.00000000
     atom    7 type  1   force =     0.00000000    0.00000000    0.00000000
     atom    8 type  1   force =     0.00000000    0.00000000    0.00000000
     atom    9 type  1   force =     0.00000000    0.00000000    0.00000000
     atom   10 type  1   force =     0.00000000    0.00000000    0.00000000
     atom   11 type  1   force =     0.00000000    0.00000000    0.00000000
     atom   12 type  1   force =     0.00000000    0.00000000    0.00000000
     atom   13 type  1   force =     0.00000000    0.00000000    0.00000000
     atom   14 type  1   force =     0.00000000    0.00000000    0.00000000
     atom   15 type  1   force =     0.00000000    0.00000000    0.00000000
     atom   16 type  1   force =     0.00000000    0.00000000    0.00000000
     atom   17 type  2   force =     0.00000000    0.00000000    0.00000000
     atom   18 type  2   force =     0.00000000    0.00000000    0.00000000
     atom   19 type  2   force =     0.00000000    0.00000000    0.00000000
     atom   20 type  2   force =     0.00000000    0.00000000    0.00000000
     atom   21 type  2   force =     0.00000000    0.00000000    0.00000000
     atom   22 type  2   force =     0.00000000    0.00000000    0.00000000
     atom   23 type  2   force =     0.00000000    0.00000000    0.00000000
     atom   24 type  2   force =     0.00000000    0.00000000    0.00000000
     atom   25 type  2   force =     0.00000000    0.00000000    0.00000000
     atom   26 type  2   force =     0.00000000    0.00000000    0.00000000
     atom   27 type  2   force =     0.00000000    0.00000000    0.00000000
     atom   28 type  2   force =     0.00000000    0.00000000    0.00000000
     atom   29 type  2   force =     0.00000000    0.00000000    0.00000000
     atom   30 type  2   force =     0.00000000    0.00000000    0.00000000
     atom   31 type  2   force =     0.00000000    0.00000000    0.00000000
     atom   32 type  2   force =     0.00000000    0.00000000    0.00000000
     atom   33 type  2   force =     0.00000000    0.00000000    0.00000000
     atom   34 type  2   force =     0.00000000    0.00000000    0.00000000
     atom   35 type  2   force =     0.00000000    0.00000000    0.00000000
     atom   36 type  2   force =     0.00000000    0.00000000    0.00000000
     atom   37 type  2   force =     0.00000000    0.00000000    0.00000000
     atom   38 type  2   force =     0.00000000    0.00000000    0.00000000
     atom   39 type  2   force =     0.00000000    0.00000000    0.00000000
     atom   40 type  2   force =     0.00000000    0.00000000    0.00000000
     atom   41 type  2   force =     0.00000000    0.00000000    0.00000000
     atom   42 type  2   force =     0.00000000    0.00000000    0.00000000
     atom   43 type  2   force =     0.00000000    0.00000000    0.00000000
     atom   44 type  2   force =     0.00000000    0.00000000    0.00000000
     atom   45 type  2   force =     0.00000000    0.00000000    0.00000000
     atom   46 type  2   force =     0.00000000    0.00000000    0.00000000
     atom   47 type  2   force =     0.00000000    0.00000000    0.00000000
     The SCF correction term to forces
     atom    1 type  1   force =     0.00000009   -0.00000049    0.00000566
     atom    2 type  1   force =    -0.00000038    0.00000032    0.00000566
     atom    3 type  1   force =     0.00000000    0.00000230    0.00000658
     atom    4 type  1   force =     0.00000199   -0.00000115    0.00000658
     atom    5 type  1   force =    -0.00000000   -0.00000113    0.00000402
     atom    6 type  1   force =     0.00000027    0.00000016    0.00000574
     atom    7 type  1   force =    -0.00000098    0.00000057    0.00000401
     atom    8 type  1   force =    -0.00000199   -0.00000115    0.00000658
     atom    9 type  1   force =    -0.00000009   -0.00000049    0.00000566
     atom   10 type  1   force =    -0.00000027    0.00000016    0.00000575
     atom   11 type  1   force =    -0.00000000   -0.00000032    0.00000574
     atom   12 type  1   force =    -0.00000047    0.00000017    0.00000566
     atom   13 type  1   force =    -0.00000000    0.00000000    0.00000519
     atom   14 type  1   force =     0.00000038    0.00000032    0.00000566
     atom   15 type  1   force =     0.00000098    0.00000057    0.00000402
     atom   16 type  1   force =     0.00000047    0.00000017    0.00000566
     atom   17 type  2   force =     0.00000092    0.00000053    0.00000028
     atom   18 type  2   force =    -0.00000000    0.00000015   -0.00000020
     atom   19 type  2   force =     0.00000160    0.00000093   -0.00000067
     atom   20 type  2   force =     0.00000013   -0.00000008   -0.00000020
     atom   21 type  2   force =    -0.00000070    0.00000008    0.00000072
     atom   22 type  2   force =    -0.00000028   -0.00000064    0.00000072
     atom   23 type  2   force =    -0.00000160    0.00000093   -0.00000067
     atom   24 type  2   force =    -0.00000000   -0.00000185   -0.00000067
     atom   25 type  2   force =     0.00000070    0.00000008    0.00000072
     atom   26 type  2   force =     0.00000042    0.00000056    0.00000072
     atom   27 type  2   force =    -0.00000013   -0.00000008   -0.00000020
     atom   28 type  2   force =    -0.00000092    0.00000053    0.00000028
     atom   29 type  2   force =     0.00000028   -0.00000064    0.00000072
     atom   30 type  2   force =    -0.00000042    0.00000056    0.00000072
     atom   31 type  2   force =     0.00000000   -0.00000106    0.00000028
     atom   32 type  2   force =     0.00000051    0.00000029    0.00000149
     atom   33 type  2   force =     0.00000000    0.00000027    0.00000298
     atom   34 type  2   force =     0.00000089    0.00000051    0.00000235
     atom   35 type  2   force =     0.00000023   -0.00000013    0.00000298
     atom   36 type  2   force =     0.00000025    0.00000053    0.00000166
     atom   37 type  2   force =     0.00000059   -0.00000005    0.00000166
     atom   38 type  2   force =    -0.00000089    0.00000051    0.00000235
     atom   39 type  2   force =    -0.00000000   -0.00000102    0.00000235
     atom   40 type  2   force =    -0.00000025    0.00000053    0.00000166
     atom   41 type  2   force =    -0.00000000    0.00000000    0.00000346
     atom   42 type  2   force =     0.00000034   -0.00000048    0.00000166
     atom   43 type  2   force =    -0.00000023   -0.00000013    0.00000298
     atom   44 type  2   force =    -0.00000051    0.00000029    0.00000149
     atom   45 type  2   force =    -0.00000059   -0.00000005    0.00000166
     atom   46 type  2   force =    -0.00000034   -0.00000048    0.00000166
     atom   47 type  2   force =    -0.00000000   -0.00000059    0.00000149

     Total force =     0.003971     Total SCF correction =     0.000025
     Energy error            =      4.5E-05 Ry
     Gradient error          =      1.3E-03 Ry/Bohr

     number of scf cycles    =   3
     number of bfgs steps    =   2

     energy             old  =   -2979.4270180442 Ry
     energy             new  =   -2979.4270626917 Ry

     CASE: energy            _new < energy            _old

     new trust radius        =       0.0022675620 bohr
     new conv_thr            =            1.0E-10 Ry


ATOMIC_POSITIONS (angstrom)
Mo               1.6016089093        0.9314162473       11.1768121255
Mo               0.0122778664        3.6842193937       11.1768121255
Mo              -1.5951590000        6.4409537403       11.1659235433
Mo              -3.1953393063        9.2125486298       11.1659235433
Mo               4.7854730000        0.9542052879       11.1456035282
Mo               3.2324785819        3.7082011555       11.1138351759
Mo               1.6239459336        6.4301328561       11.1456035282
Mo               0.0050223063        9.2125486298       11.1659235433
Mo               7.9693380907        0.9314172473       11.1768121255
Mo               6.3384674181        3.7082021555       11.1138351759
Mo               4.7854740000        6.3980686891       11.1138351759
Mo               3.1961429570        9.1988353589       11.1768121255
Mo              11.1661060000        0.9209640000       11.1830949088
Mo               9.5586701336        3.6842193937       11.1768121255
Mo               7.9470020664        6.4301348561       11.1456035282
Mo               6.3748050430        9.1988363589       11.1768121255
S                0.0068473165        1.8458843000       12.7404084311
S               -1.5951580000        4.6088064933       12.7337786752
S               -3.2083505293        7.3573061822       12.7110401246
S               -4.7820240596       10.1286207533       12.7337796752
S                3.2325231329        1.9094949026       12.7070332610
S                1.6747744882        4.6075939981       12.7070322610
S                0.0180355293        7.3573061822       12.7110401246
S               -1.5951580000       10.1514386354       12.7110401246
S                6.3384238671        1.9094919026       12.7070342610
S                3.2277243554        7.2973840993       12.7070322610
S                1.5917090596       10.1286217533       12.7337786752
S                9.5640996835        1.8458833000       12.7404084311
S                7.8961745118        4.6075949981       12.7070342610
S                6.3432216446        7.2973840993       12.7070332610
S                4.7854730000       10.1227053999       12.7404084311
S                0.0005735140        1.8422621184        9.6238643430
S               -1.5951580000        4.5937490145        9.6172548113
S               -3.1956427762        7.3646435843        9.6072031482
S               -4.7950642187       10.1361504927        9.6172528113
S                3.1767231848        1.8627698696        9.5856175357
S                1.6064094487        4.5826323419        9.5856185357
S                0.0053267762        7.3646435843        9.6072031482
S               -1.5951580000       10.1367638314        9.6072031482
S                6.3942238152        1.8627668696        9.5856165357
S                4.7854720000        4.6048250000        9.5481802161
S                3.2151602640        7.3690707885        9.5856185357
S                1.6047492187       10.1361504927        9.6172548113
S                9.5703734860        1.8422611184        9.6238653430
S                7.9645395513        4.5826333419        9.5856165357
S                6.3557867360        7.3690707885        9.5856175357
S                4.7854730000       10.1299507631        9.6238643430



     Writing config-only to output data dir /home/nihal/Desktop/Otptf/Trial_4.save/ :
     XML data file
     NEW-OLD atomic charge density approx. for the potential

     negative rho (up, down):  1.433E-03 1.433E-03
     Generating pointlists ...

     total cpu time spent up to now is     9828.0 secs

     Self-consistent Calculation

     iteration #  1     ecut=    65.00 Ry     beta= 0.30
     Davidson diagonalization with overlap

---- Real-time Memory Report at c_bands before calling an iterative solver
          2764 MiB given to the printing process from OS
             0 MiB allocation reported by mallinfo(arena+hblkhd)
         14312 MiB available memory on the node where the printing process lives
------------------
     ethr =  1.00E-06,  avg # of iterations =  2.9

     Threshold (ethr) on eigenvalues was too large:
     Diagonalizing with lowered threshold

     Davidson diagonalization with overlap

---- Real-time Memory Report at c_bands before calling an iterative solver
          2764 MiB given to the printing process from OS
             0 MiB allocation reported by mallinfo(arena+hblkhd)
         14835 MiB available memory on the node where the printing process lives
------------------
     ethr =  1.48E-09,  avg # of iterations =  4.9

     negative rho (up, down):  1.432E-03 1.432E-03

     total cpu time spent up to now is    10406.1 secs

     total energy              =   -2979.42708344 Ry
     estimated scf accuracy    <       0.00000322 Ry

     total magnetization       =     0.00 Bohr mag/cell
     absolute magnetization    =     0.00 Bohr mag/cell

     iteration #  2     ecut=    65.00 Ry     beta= 0.30
     Davidson diagonalization with overlap

---- Real-time Memory Report at c_bands before calling an iterative solver
          2764 MiB given to the printing process from OS
             0 MiB allocation reported by mallinfo(arena+hblkhd)
         13808 MiB available memory on the node where the printing process lives
------------------
     ethr =  7.86E-10,  avg # of iterations =  3.0

     negative rho (up, down):  1.432E-03 1.432E-03

     total cpu time spent up to now is    10614.8 secs

     total energy              =   -2979.42708343 Ry
     estimated scf accuracy    <       0.00000424 Ry

     total magnetization       =     0.00 Bohr mag/cell
     absolute magnetization    =     0.00 Bohr mag/cell

     iteration #  3     ecut=    65.00 Ry     beta= 0.30
     Davidson diagonalization with overlap

---- Real-time Memory Report at c_bands before calling an iterative solver
          2764 MiB given to the printing process from OS
             0 MiB allocation reported by mallinfo(arena+hblkhd)
         14214 MiB available memory on the node where the printing process lives
------------------
     ethr =  7.86E-10,  avg # of iterations =  2.4

     negative rho (up, down):  1.432E-03 1.432E-03

     total cpu time spent up to now is    10793.9 secs

     total energy              =   -2979.42708383 Ry
     estimated scf accuracy    <       0.00000076 Ry

     total magnetization       =     0.00 Bohr mag/cell
     absolute magnetization    =     0.00 Bohr mag/cell

     iteration #  4     ecut=    65.00 Ry     beta= 0.30
     Davidson diagonalization with overlap

---- Real-time Memory Report at c_bands before calling an iterative solver
          2764 MiB given to the printing process from OS
             0 MiB allocation reported by mallinfo(arena+hblkhd)
         13767 MiB available memory on the node where the printing process lives
------------------
     ethr =  1.86E-10,  avg # of iterations =  2.0

     negative rho (up, down):  1.432E-03 1.432E-03

     total cpu time spent up to now is    10974.7 secs

     total energy              =   -2979.42708385 Ry
     estimated scf accuracy    <       0.00000036 Ry

     total magnetization       =     0.00 Bohr mag/cell
     absolute magnetization    =     0.00 Bohr mag/cell

     iteration #  5     ecut=    65.00 Ry     beta= 0.30
     Davidson diagonalization with overlap

---- Real-time Memory Report at c_bands before calling an iterative solver
          2764 MiB given to the printing process from OS
             0 MiB allocation reported by mallinfo(arena+hblkhd)
         14072 MiB available memory on the node where the printing process lives
------------------
     ethr =  8.88E-11,  avg # of iterations =  2.1

     negative rho (up, down):  1.432E-03 1.432E-03

     total cpu time spent up to now is    11152.2 secs

     total energy              =   -2979.42708388 Ry
     estimated scf accuracy    <       0.00000012 Ry

     total magnetization       =     0.00 Bohr mag/cell
     absolute magnetization    =     0.00 Bohr mag/cell

     iteration #  6     ecut=    65.00 Ry     beta= 0.30
     Davidson diagonalization with overlap

---- Real-time Memory Report at c_bands before calling an iterative solver
          2764 MiB given to the printing process from OS
             0 MiB allocation reported by mallinfo(arena+hblkhd)
         13558 MiB available memory on the node where the printing process lives
------------------
     ethr =  2.83E-11,  avg # of iterations =  2.0

     negative rho (up, down):  1.432E-03 1.432E-03

     total cpu time spent up to now is    11329.6 secs

     total energy              =   -2979.42708389 Ry
     estimated scf accuracy    <       0.00000001 Ry

     total magnetization       =     0.00 Bohr mag/cell
     absolute magnetization    =     0.00 Bohr mag/cell

     iteration #  7     ecut=    65.00 Ry     beta= 0.30
     Davidson diagonalization with overlap

---- Real-time Memory Report at c_bands before calling an iterative solver
          2764 MiB given to the printing process from OS
             0 MiB allocation reported by mallinfo(arena+hblkhd)
         13868 MiB available memory on the node where the printing process lives
------------------
     ethr =  2.91E-12,  avg # of iterations =  3.1

     negative rho (up, down):  1.432E-03 1.432E-03

     total cpu time spent up to now is    11553.4 secs

     total energy              =   -2979.42708390 Ry
     estimated scf accuracy    <          5.6E-09 Ry

     total magnetization       =     0.00 Bohr mag/cell
     absolute magnetization    =     0.00 Bohr mag/cell

     iteration #  8     ecut=    65.00 Ry     beta= 0.30
     Davidson diagonalization with overlap

---- Real-time Memory Report at c_bands before calling an iterative solver
          2764 MiB given to the printing process from OS
             0 MiB allocation reported by mallinfo(arena+hblkhd)
         13659 MiB available memory on the node where the printing process lives
------------------
     ethr =  1.37E-12,  avg # of iterations =  2.1

     negative rho (up, down):  1.432E-03 1.432E-03

     total cpu time spent up to now is    11744.3 secs

     total energy              =   -2979.42708390 Ry
     estimated scf accuracy    <          2.6E-09 Ry

     total magnetization       =     0.00 Bohr mag/cell
     absolute magnetization    =     0.00 Bohr mag/cell

     iteration #  9     ecut=    65.00 Ry     beta= 0.30
     Davidson diagonalization with overlap

---- Real-time Memory Report at c_bands before calling an iterative solver
          2764 MiB given to the printing process from OS
             0 MiB allocation reported by mallinfo(arena+hblkhd)
         13517 MiB available memory on the node where the printing process lives
------------------
     ethr =  6.32E-13,  avg # of iterations =  2.0

     negative rho (up, down):  1.432E-03 1.432E-03

     total cpu time spent up to now is    11924.1 secs

     total energy              =   -2979.42708390 Ry
     estimated scf accuracy    <          9.9E-10 Ry

     total magnetization       =     0.00 Bohr mag/cell
     absolute magnetization    =     0.00 Bohr mag/cell

     iteration # 10     ecut=    65.00 Ry     beta= 0.30
     Davidson diagonalization with overlap

---- Real-time Memory Report at c_bands before calling an iterative solver
          2764 MiB given to the printing process from OS
             0 MiB allocation reported by mallinfo(arena+hblkhd)
         13414 MiB available memory on the node where the printing process lives
------------------
     ethr =  2.41E-13,  avg # of iterations =  2.0

     negative rho (up, down):  1.432E-03 1.432E-03

     total cpu time spent up to now is    12102.7 secs

     total energy              =   -2979.42708390 Ry
     estimated scf accuracy    <          1.7E-10 Ry

     total magnetization       =     0.00 Bohr mag/cell
     absolute magnetization    =     0.00 Bohr mag/cell

     iteration # 11     ecut=    65.00 Ry     beta= 0.30
     Davidson diagonalization with overlap

---- Real-time Memory Report at c_bands before calling an iterative solver
          2764 MiB given to the printing process from OS
             0 MiB allocation reported by mallinfo(arena+hblkhd)
         13665 MiB available memory on the node where the printing process lives
------------------
     ethr =  1.00E-13,  avg # of iterations =  1.0

     negative rho (up, down):  1.432E-03 1.432E-03

     Magnetic moment per site  (integrated on atomic sphere of radius R)
     atom   1 (R=0.077)  charge= 10.6267  magn=  0.0000
     atom   2 (R=0.077)  charge= 10.6267  magn=  0.0000
     atom   3 (R=0.077)  charge= 10.6265  magn=  0.0000
     atom   4 (R=0.077)  charge= 10.6265  magn=  0.0000
     atom   5 (R=0.077)  charge= 10.6293  magn= -0.0000
     atom   6 (R=0.077)  charge= 10.6194  magn=  0.0000
     atom   7 (R=0.077)  charge= 10.6293  magn= -0.0000
     atom   8 (R=0.077)  charge= 10.6265  magn=  0.0000
     atom   9 (R=0.077)  charge= 10.6267  magn=  0.0000
     atom  10 (R=0.077)  charge= 10.6194  magn=  0.0000
     atom  11 (R=0.077)  charge= 10.6194  magn=  0.0000
     atom  12 (R=0.077)  charge= 10.6267  magn=  0.0000
     atom  13 (R=0.077)  charge= 10.6287  magn=  0.0000
     atom  14 (R=0.077)  charge= 10.6267  magn=  0.0000
     atom  15 (R=0.077)  charge= 10.6293  magn= -0.0000
     atom  16 (R=0.077)  charge= 10.6267  magn=  0.0000
     atom  17 (R=0.077)  charge=  4.0459  magn= -0.0000
     atom  18 (R=0.077)  charge=  4.0437  magn= -0.0000
     atom  19 (R=0.077)  charge=  4.0445  magn= -0.0000
     atom  20 (R=0.077)  charge=  4.0437  magn= -0.0000
     atom  21 (R=0.077)  charge=  4.0467  magn= -0.0000
     atom  22 (R=0.077)  charge=  4.0467  magn= -0.0000
     atom  23 (R=0.077)  charge=  4.0445  magn= -0.0000
     atom  24 (R=0.077)  charge=  4.0445  magn= -0.0000
     atom  25 (R=0.077)  charge=  4.0467  magn= -0.0000
     atom  26 (R=0.077)  charge=  4.0467  magn= -0.0000
     atom  27 (R=0.077)  charge=  4.0437  magn= -0.0000
     atom  28 (R=0.077)  charge=  4.0459  magn= -0.0000
     atom  29 (R=0.077)  charge=  4.0467  magn= -0.0000
     atom  30 (R=0.077)  charge=  4.0467  magn= -0.0000
     atom  31 (R=0.077)  charge=  4.0459  magn= -0.0000
     atom  32 (R=0.077)  charge=  4.0493  magn= -0.0000
     atom  33 (R=0.077)  charge=  4.0467  magn= -0.0000
     atom  34 (R=0.077)  charge=  4.0463  magn= -0.0000
     atom  35 (R=0.077)  charge=  4.0467  magn= -0.0000
     atom  36 (R=0.077)  charge=  4.0439  magn= -0.0000
     atom  37 (R=0.077)  charge=  4.0439  magn= -0.0000
     atom  38 (R=0.077)  charge=  4.0463  magn= -0.0000
     atom  39 (R=0.077)  charge=  4.0463  magn= -0.0000
     atom  40 (R=0.077)  charge=  4.0439  magn= -0.0000
     atom  41 (R=0.077)  charge=  4.0716  magn=  0.0000
     atom  42 (R=0.077)  charge=  4.0439  magn= -0.0000
     atom  43 (R=0.077)  charge=  4.0467  magn= -0.0000
     atom  44 (R=0.077)  charge=  4.0493  magn= -0.0000
     atom  45 (R=0.077)  charge=  4.0439  magn= -0.0000
     atom  46 (R=0.077)  charge=  4.0439  magn= -0.0000
     atom  47 (R=0.077)  charge=  4.0493  magn= -0.0000

     total cpu time spent up to now is    12275.2 secs

     End of self-consistent calculation

 ------ SPIN UP ------------


          k = 0.0000 0.0000 0.0000 (126355 PWs)   bands (ev):

   -60.3631 -60.3556 -60.3556 -60.3446 -60.3377 -60.3377 -60.3326 -60.3096
   -60.3095 -60.3078 -60.2999 -60.2999 -60.2965 -60.2920 -60.2759 -60.2758
   -34.6616 -34.6615 -34.6168 -34.5968 -34.5894 -34.5894 -34.5647 -34.5647
   -34.5255 -34.4862 -34.4752 -34.4744 -34.4743 -34.4724 -34.4724 -34.4520
   -34.4520 -34.4505 -34.4481 -34.4389 -34.4351 -34.4321 -34.4321 -34.4291
   -34.4291 -34.4050 -34.4050 -34.4008 -34.4008 -34.3973 -34.3864 -34.3864
   -34.3856 -34.3855 -34.3781 -34.3773 -34.3671 -34.3671 -34.3571 -34.3569
   -34.3374 -34.3374 -34.3345 -34.3059 -34.2933 -34.2932 -34.2148 -34.2147
   -13.4636 -12.7115 -12.7114 -12.6843 -12.6726 -12.6726 -12.5519 -12.1693
   -11.8956 -11.8955 -11.8463 -11.8454 -11.8453 -11.8114 -11.7199 -11.7198
   -11.7104 -11.7103 -11.6946 -11.6754 -11.6754 -11.6675 -11.5562 -11.4804
   -11.4803 -11.4569 -11.4568 -11.4389 -11.4389 -11.4338 -11.4275  -5.2009
    -5.0979  -5.0979  -4.9846  -4.5262  -4.5259  -4.5259  -4.4952  -4.4746
    -4.4746  -4.4252  -4.4109  -4.4109  -4.3877  -4.3877  -4.3662  -4.3117
    -4.3117  -4.2852  -4.2637  -4.2352  -4.2352  -4.1432  -3.9413  -3.9413
    -3.4823  -3.4822  -3.4374  -3.3186  -3.2618  -3.2495  -3.2495  -3.1798
    -3.1798  -3.0886  -3.0515  -3.0406  -3.0406  -3.0317  -3.0316  -2.9952
    -2.9727  -2.9727  -2.8491  -2.8491  -2.7262  -2.6705  -2.6705  -2.6417
    -2.6130  -2.6130  -2.5887  -2.4486  -2.4436  -2.4436  -2.3211  -2.3211
    -2.2978  -2.2436  -2.1594  -2.1594  -2.0293  -2.0293  -1.9358  -1.9230
    -1.9230  -1.9040  -1.6024  -1.6024  -1.2952  -1.2912  -1.2911  -1.2886
    -1.2731  -1.2731  -1.1833  -1.1562  -1.1053  -1.1053  -1.0600  -1.0600
    -1.0356  -1.0010  -1.0010  -0.9163  -0.8485  -0.8485  -0.7943  -0.7395
    -0.7395  -0.5403  -0.5403  -0.4565  -0.2466  -0.1686  -0.1685  -0.1369
    -0.1242  -0.1196  -0.1196  -0.0466  -0.0466  -0.0030  -0.0030   0.0265
     0.0362   0.0777   0.0778   0.4336   0.6833   1.7428   1.7428   2.6688
     2.6827   2.6926   2.6927   2.7272   2.7272   2.7372   2.7468   2.7468
     2.7719   2.7719   2.8084   2.8150   2.8150   2.8647   2.9097   2.9218
     2.9218   2.9775   3.1576   3.1576   3.2742   3.2942   3.2942   3.3259
     3.3259   3.3443   3.3544   3.3544   3.3851   3.4176   3.4176   3.4551
     3.4551   3.4640   3.5090   3.5090   3.5978   3.6599

     occupation numbers 
     1.0000   1.0000   1.0000   1.0000   1.0000   1.0000   1.0000   1.0000
     1.0000   1.0000   1.0000   1.0000   1.0000   1.0000   1.0000   1.0000
     1.0000   1.0000   1.0000   1.0000   1.0000   1.0000   1.0000   1.0000
     1.0000   1.0000   1.0000   1.0000   1.0000   1.0000   1.0000   1.0000
     1.0000   1.0000   1.0000   1.0000   1.0000   1.0000   1.0000   1.0000
     1.0000   1.0000   1.0000   1.0000   1.0000   1.0000   1.0000   1.0000
     1.0000   1.0000   1.0000   1.0000   1.0000   1.0000   1.0000   1.0000
     1.0000   1.0000   1.0000   1.0000   1.0000   1.0000   1.0000   1.0000
     1.0000   1.0000   1.0000   1.0000   1.0000   1.0000   1.0000   1.0000
     1.0000   1.0000   1.0000   1.0000   1.0000   1.0000   1.0000   1.0000
     1.0000   1.0000   1.0000   1.0000   1.0000   1.0000   1.0000   1.0000
     1.0000   1.0000   1.0000   1.0000   1.0000   1.0000   1.0000   1.0000
     1.0000   1.0000   1.0000   1.0000   1.0000   1.0000   1.0000   1.0000
     1.0000   1.0000   1.0000   1.0000   1.0000   1.0000   1.0000   1.0000
     1.0000   1.0000   1.0000   1.0000   1.0000   1.0000   1.0000   1.0000
     1.0000   1.0000   1.0000   1.0000   1.0000   1.0000   1.0000   1.0000
     1.0000   1.0000   1.0000   1.0000   1.0000   1.0000   1.0000   1.0000
     1.0000   1.0000   1.0000   1.0000   1.0000   1.0000   1.0000   1.0000
     1.0000   1.0000   1.0000   1.0000   1.0000   1.0000   1.0000   1.0000
     1.0000   1.0000   1.0000   1.0000   1.0000   1.0000   1.0000   1.0000
     1.0000   1.0000   1.0000   1.0000   1.0000   1.0000   1.0000   1.0000
     1.0000   1.0000   1.0000   1.0000   1.0000   1.0000   1.0000   1.0000
     1.0000   1.0000   1.0000   1.0000   1.0000   1.0000   1.0000   1.0000
     1.0000   1.0000   1.0000   1.0000   1.0000   1.0000   1.0000   1.0000
     1.0000   1.0000   1.0000   1.0000   1.0000   1.0000   1.0000   1.0000
     1.0000   1.0000   1.0000   1.0000   0.9992   0.0002   0.0002   0.0000
     0.0000   0.0000   0.0000   0.0000   0.0000   0.0000   0.0000   0.0000
     0.0000   0.0000   0.0000   0.0000   0.0000   0.0000   0.0000   0.0000
     0.0000   0.0000   0.0000   0.0000   0.0000   0.0000   0.0000   0.0000
     0.0000   0.0000   0.0000   0.0000   0.0000   0.0000   0.0000   0.0000
     0.0000   0.0000   0.0000   0.0000   0.0000   0.0000

          k = 0.0000 0.1925 0.0000 (126305 PWs)   bands (ev):

   -60.3629 -60.3560 -60.3556 -60.3444 -60.3379 -60.3377 -60.3325 -60.3095
   -60.3095 -60.3078 -60.3001 -60.3000 -60.2963 -60.2919 -60.2759 -60.2758
   -34.6588 -34.6567 -34.6134 -34.5994 -34.5914 -34.5887 -34.5693 -34.5616
   -34.5322 -34.5083 -34.4914 -34.4831 -34.4747 -34.4679 -34.4560 -34.4537
   -34.4522 -34.4442 -34.4438 -34.4395 -34.4348 -34.4288 -34.4279 -34.4240
   -34.4209 -34.4053 -34.4053 -34.4032 -34.3970 -34.3951 -34.3877 -34.3874
   -34.3852 -34.3783 -34.3781 -34.3732 -34.3680 -34.3671 -34.3570 -34.3569
   -34.3416 -34.3400 -34.3342 -34.3062 -34.2968 -34.2934 -34.2170 -34.2150
   -13.4389 -12.8939 -12.7920 -12.7477 -12.5590 -12.5119 -12.4253 -12.1595
   -11.9505 -11.9180 -11.8861 -11.8627 -11.8452 -11.8111 -11.7853 -11.7620
   -11.7168 -11.7089 -11.6814 -11.6774 -11.6254 -11.5804 -11.5453 -11.5183
   -11.4994 -11.4822 -11.4674 -11.4453 -11.4368 -11.4029 -11.3838  -5.1637
    -5.0645  -5.0639  -4.9552  -4.5843  -4.5506  -4.5491  -4.5345  -4.5190
    -4.4893  -4.4689  -4.4406  -4.4285  -4.4215  -4.4069  -4.3883  -4.3882
    -4.3001  -4.2679  -4.2507  -4.1639  -4.0944  -4.0858  -3.9103  -3.8885
    -3.4691  -3.4687  -3.4184  -3.3335  -3.3036  -3.2763  -3.2740  -3.1924
    -3.1625  -3.1591  -3.1305  -3.1077  -3.0988  -3.0841  -3.0766  -3.0087
    -3.0031  -2.8991  -2.7593  -2.7523  -2.6932  -2.6759  -2.6442  -2.6419
    -2.5930  -2.5880  -2.5607  -2.5558  -2.5417  -2.3937  -2.2974  -2.2913
    -2.1614  -2.1499  -2.1120  -2.0999  -2.0630  -2.0149  -1.9992  -1.9721
    -1.9261  -1.8009  -1.6356  -1.5984  -1.4362  -1.4126  -1.3180  -1.2943
    -1.2472  -1.2415  -1.2225  -1.2083  -1.1500  -1.1443  -1.0679  -1.0625
    -1.0192  -0.9635  -0.9116  -0.9040  -0.8224  -0.7994  -0.7502  -0.6731
    -0.6620  -0.6118  -0.6030  -0.5137  -0.3302  -0.2625  -0.2277  -0.1575
    -0.1313  -0.1285  -0.0507  -0.0382  -0.0301   0.0144   0.0147   0.0359
     0.1126   0.1861   0.1906   0.4383   0.6668   1.7428   1.7479   2.5689
     2.5840   2.6821   2.6894   2.7111   2.7185   2.7224   2.7318   2.7581
     2.7632   2.7863   2.7941   2.8270   2.8302   2.8663   2.8919   2.9633
     2.9713   3.0058   3.1111   3.1167   3.1879   3.2228   3.2408   3.2533
     3.2835   3.2894   3.3203   3.3422   3.3689   3.3809   3.4208   3.4378
     3.5153   3.5333   3.6077   3.6271   3.6434   3.6453

     occupation numbers 
     1.0000   1.0000   1.0000   1.0000   1.0000   1.0000   1.0000   1.0000
     1.0000   1.0000   1.0000   1.0000   1.0000   1.0000   1.0000   1.0000
     1.0000   1.0000   1.0000   1.0000   1.0000   1.0000   1.0000   1.0000
     1.0000   1.0000   1.0000   1.0000   1.0000   1.0000   1.0000   1.0000
     1.0000   1.0000   1.0000   1.0000   1.0000   1.0000   1.0000   1.0000
     1.0000   1.0000   1.0000   1.0000   1.0000   1.0000   1.0000   1.0000
     1.0000   1.0000   1.0000   1.0000   1.0000   1.0000   1.0000   1.0000
     1.0000   1.0000   1.0000   1.0000   1.0000   1.0000   1.0000   1.0000
     1.0000   1.0000   1.0000   1.0000   1.0000   1.0000   1.0000   1.0000
     1.0000   1.0000   1.0000   1.0000   1.0000   1.0000   1.0000   1.0000
     1.0000   1.0000   1.0000   1.0000   1.0000   1.0000   1.0000   1.0000
     1.0000   1.0000   1.0000   1.0000   1.0000   1.0000   1.0000   1.0000
     1.0000   1.0000   1.0000   1.0000   1.0000   1.0000   1.0000   1.0000
     1.0000   1.0000   1.0000   1.0000   1.0000   1.0000   1.0000   1.0000
     1.0000   1.0000   1.0000   1.0000   1.0000   1.0000   1.0000   1.0000
     1.0000   1.0000   1.0000   1.0000   1.0000   1.0000   1.0000   1.0000
     1.0000   1.0000   1.0000   1.0000   1.0000   1.0000   1.0000   1.0000
     1.0000   1.0000   1.0000   1.0000   1.0000   1.0000   1.0000   1.0000
     1.0000   1.0000   1.0000   1.0000   1.0000   1.0000   1.0000   1.0000
     1.0000   1.0000   1.0000   1.0000   1.0000   1.0000   1.0000   1.0000
     1.0000   1.0000   1.0000   1.0000   1.0000   1.0000   1.0000   1.0000
     1.0000   1.0000   1.0000   1.0000   1.0000   1.0000   1.0000   1.0000
     1.0000   1.0000   1.0000   1.0000   1.0000   1.0000   1.0000   1.0000
     1.0000   1.0000   1.0000   1.0000   1.0000   1.0000   1.0000   1.0000
     1.0000   1.0000   1.0000   1.0000   1.0000   1.0000   1.0000   1.0000
     1.0000   1.0000   1.0000   1.0000   0.9994   0.0002   0.0002   0.0000
     0.0000   0.0000   0.0000   0.0000   0.0000   0.0000   0.0000   0.0000
     0.0000   0.0000   0.0000   0.0000   0.0000   0.0000   0.0000   0.0000
     0.0000   0.0000   0.0000   0.0000   0.0000   0.0000   0.0000   0.0000
     0.0000   0.0000   0.0000   0.0000   0.0000   0.0000   0.0000   0.0000
     0.0000   0.0000   0.0000   0.0000   0.0000   0.0000

          k = 0.0000 0.3849 0.0000 (126328 PWs)   bands (ev):

   -60.3623 -60.3567 -60.3556 -60.3441 -60.3383 -60.3376 -60.3321 -60.3094
   -60.3093 -60.3077 -60.3005 -60.3003 -60.2961 -60.2918 -60.2759 -60.2758
   -34.6515 -34.6432 -34.6101 -34.6060 -34.5950 -34.5906 -34.5714 -34.5538
   -34.5486 -34.5335 -34.5099 -34.4847 -34.4758 -34.4728 -34.4586 -34.4561
   -34.4527 -34.4419 -34.4333 -34.4311 -34.4306 -34.4272 -34.4256 -34.4121
   -34.4081 -34.4057 -34.4040 -34.3971 -34.3919 -34.3909 -34.3889 -34.3853
   -34.3830 -34.3784 -34.3766 -34.3766 -34.3663 -34.3575 -34.3569 -34.3526
   -34.3499 -34.3454 -34.3358 -34.3073 -34.3069 -34.2933 -34.2217 -34.2156
   -13.3662 -13.0841 -12.8520 -12.7989 -12.4018 -12.3667 -12.2140 -12.1312
   -12.0440 -12.0373 -11.9908 -11.9354 -11.8959 -11.8248 -11.7522 -11.7373
   -11.7057 -11.6830 -11.6814 -11.6686 -11.6305 -11.5936 -11.5610 -11.5215
   -11.5016 -11.4754 -11.4646 -11.4457 -11.4372 -11.3728 -11.3476  -5.0585
    -4.9706  -4.9674  -4.8702  -4.7244  -4.6766  -4.6597  -4.6159  -4.6070
    -4.5744  -4.5099  -4.4993  -4.4381  -4.4237  -4.4073  -4.3631  -4.3539
    -4.3070  -4.2478  -4.2271  -4.1706  -4.0302  -3.9352  -3.7419  -3.7116
    -3.5318  -3.4306  -3.4281  -3.3749  -3.3304  -3.3090  -3.3069  -3.2876
    -3.2623  -3.2447  -3.2386  -3.2013  -3.1550  -3.1516  -3.1252  -3.0068
    -2.9346  -2.7975  -2.6957  -2.6823  -2.6531  -2.6370  -2.6273  -2.6265
    -2.5979  -2.5609  -2.5422  -2.4824  -2.4392  -2.4106  -2.3810  -2.3248
    -2.3076  -2.2387  -2.1082  -2.0827  -2.0140  -1.9358  -1.8526  -1.7597
    -1.7481  -1.6838  -1.6801  -1.5780  -1.5745  -1.4683  -1.3838  -1.3651
    -1.3192  -1.3106  -1.2285  -1.2215  -1.1718  -1.1640  -1.1361  -1.1244
    -1.0141  -1.0053  -0.9506  -0.9080  -0.8172  -0.7877  -0.7481  -0.6809
    -0.6174  -0.6057  -0.5013  -0.4642  -0.3848  -0.3118  -0.2701  -0.2351
    -0.2008  -0.1947  -0.0113   0.0063   0.0180   0.0392   0.0516   0.0661
     0.2931   0.3216   0.3291   0.4526   0.6178   1.7427   1.7614   2.4263
     2.4572   2.6066   2.6342   2.6558   2.6882   2.6960   2.7203   2.7401
     2.7578   2.7740   2.8038   2.8443   2.8728   2.8997   2.9315   2.9949
     3.0089   3.0445   3.0647   3.0947   3.1035   3.1216   3.1473   3.1755
     3.2021   3.2528   3.2726   3.3022   3.3428   3.3514   3.3712   3.4667
     3.5110   3.5343   3.5803   3.6557   3.7387   3.7430

     occupation numbers 
     1.0000   1.0000   1.0000   1.0000   1.0000   1.0000   1.0000   1.0000
     1.0000   1.0000   1.0000   1.0000   1.0000   1.0000   1.0000   1.0000
     1.0000   1.0000   1.0000   1.0000   1.0000   1.0000   1.0000   1.0000
     1.0000   1.0000   1.0000   1.0000   1.0000   1.0000   1.0000   1.0000
     1.0000   1.0000   1.0000   1.0000   1.0000   1.0000   1.0000   1.0000
     1.0000   1.0000   1.0000   1.0000   1.0000   1.0000   1.0000   1.0000
     1.0000   1.0000   1.0000   1.0000   1.0000   1.0000   1.0000   1.0000
     1.0000   1.0000   1.0000   1.0000   1.0000   1.0000   1.0000   1.0000
     1.0000   1.0000   1.0000   1.0000   1.0000   1.0000   1.0000   1.0000
     1.0000   1.0000   1.0000   1.0000   1.0000   1.0000   1.0000   1.0000
     1.0000   1.0000   1.0000   1.0000   1.0000   1.0000   1.0000   1.0000
     1.0000   1.0000   1.0000   1.0000   1.0000   1.0000   1.0000   1.0000
     1.0000   1.0000   1.0000   1.0000   1.0000   1.0000   1.0000   1.0000
     1.0000   1.0000   1.0000   1.0000   1.0000   1.0000   1.0000   1.0000
     1.0000   1.0000   1.0000   1.0000   1.0000   1.0000   1.0000   1.0000
     1.0000   1.0000   1.0000   1.0000   1.0000   1.0000   1.0000   1.0000
     1.0000   1.0000   1.0000   1.0000   1.0000   1.0000   1.0000   1.0000
     1.0000   1.0000   1.0000   1.0000   1.0000   1.0000   1.0000   1.0000
     1.0000   1.0000   1.0000   1.0000   1.0000   1.0000   1.0000   1.0000
     1.0000   1.0000   1.0000   1.0000   1.0000   1.0000   1.0000   1.0000
     1.0000   1.0000   1.0000   1.0000   1.0000   1.0000   1.0000   1.0000
     1.0000   1.0000   1.0000   1.0000   1.0000   1.0000   1.0000   1.0000
     1.0000   1.0000   1.0000   1.0000   1.0000   1.0000   1.0000   1.0000
     1.0000   1.0000   1.0000   1.0000   1.0000   1.0000   1.0000   1.0000
     1.0000   1.0000   1.0000   1.0000   1.0000   1.0000   1.0000   1.0000
     1.0000   1.0000   1.0000   1.0000   0.9997   0.0002   0.0002   0.0000
     0.0000   0.0000   0.0000   0.0000   0.0000   0.0000   0.0000   0.0000
     0.0000   0.0000   0.0000   0.0000   0.0000   0.0000   0.0000   0.0000
     0.0000   0.0000   0.0000   0.0000   0.0000   0.0000   0.0000   0.0000
     0.0000   0.0000   0.0000   0.0000   0.0000   0.0000   0.0000   0.0000
     0.0000   0.0000   0.0000   0.0000   0.0000   0.0000

          k = 0.0000-0.5774 0.0000 (126288 PWs)   bands (ev):

   -60.3620 -60.3571 -60.3556 -60.3440 -60.3385 -60.3376 -60.3320 -60.3094
   -60.3093 -60.3077 -60.3007 -60.3004 -60.2960 -60.2918 -60.2760 -60.2758
   -34.6461 -34.6292 -34.6175 -34.6141 -34.5934 -34.5896 -34.5691 -34.5578
   -34.5479 -34.5457 -34.5196 -34.4810 -34.4799 -34.4717 -34.4655 -34.4595
   -34.4529 -34.4426 -34.4323 -34.4271 -34.4249 -34.4217 -34.4213 -34.4077
   -34.4055 -34.4052 -34.3985 -34.3966 -34.3964 -34.3904 -34.3897 -34.3891
   -34.3815 -34.3782 -34.3688 -34.3678 -34.3672 -34.3585 -34.3573 -34.3556
   -34.3552 -34.3377 -34.3369 -34.3161 -34.3081 -34.2931 -34.2243 -34.2159
   -13.2680 -13.2225 -12.8724 -12.8171 -12.2458 -12.2296 -12.2230 -12.1582
   -12.0966 -12.0763 -12.0181 -11.9522 -11.9436 -11.9005 -11.7090 -11.7054
   -11.6991 -11.6754 -11.6663 -11.6627 -11.6581 -11.6014 -11.5960 -11.5517
   -11.4807 -11.4616 -11.4565 -11.4425 -11.4373 -11.3618 -11.3346  -4.9259
    -4.8773  -4.8662  -4.8473  -4.7892  -4.7853  -4.7597  -4.7103  -4.6584
    -4.6575  -4.4956  -4.4934  -4.4504  -4.4375  -4.4139  -4.3410  -4.3289
    -4.2980  -4.2448  -4.2297  -4.1457  -4.0337  -3.8100  -3.7349  -3.5667
    -3.5071  -3.4366  -3.4357  -3.3824  -3.3718  -3.3634  -3.3335  -3.3315
    -3.3056  -3.2944  -3.2812  -3.2401  -3.1970  -3.1738  -3.1297  -2.9902
    -2.9560  -2.6687  -2.6604  -2.6326  -2.6308  -2.6004  -2.5884  -2.5713
    -2.5642  -2.5578  -2.5502  -2.5251  -2.5190  -2.4304  -2.4277  -2.3916
    -2.3575  -2.2303  -2.1075  -2.0369  -2.0207  -1.9290  -1.8534  -1.8287
    -1.6928  -1.5091  -1.4962  -1.4371  -1.4060  -1.3997  -1.3970  -1.3739
    -1.3597  -1.3521  -1.3287  -1.3142  -1.2905  -1.2154  -1.1908  -1.1727
    -1.1654  -1.1628  -0.9594  -0.9309  -0.8073  -0.7236  -0.7024  -0.6550
    -0.6354  -0.5974  -0.4399  -0.4136  -0.3564  -0.3170  -0.2963  -0.2700
    -0.2516  -0.2223   0.0011   0.0324   0.0331   0.0489   0.0691   0.0793
     0.3704   0.3804   0.4024   0.4688   0.5696   1.7421   1.7701   2.3623
     2.4023   2.5687   2.5979   2.6093   2.6590   2.6841   2.7171   2.7410
     2.7603   2.7702   2.8058   2.8372   2.8853   2.9946   3.0038   3.0194
     3.0256   3.0415   3.0463   3.0576   3.0621   3.0736   3.0770   3.1305
     3.1448   3.2034   3.2992   3.3031   3.3254   3.3276   3.3453   3.4979
     3.5184   3.5309   3.6202   3.6613   3.6817   3.7501

     occupation numbers 
     1.0000   1.0000   1.0000   1.0000   1.0000   1.0000   1.0000   1.0000
     1.0000   1.0000   1.0000   1.0000   1.0000   1.0000   1.0000   1.0000
     1.0000   1.0000   1.0000   1.0000   1.0000   1.0000   1.0000   1.0000
     1.0000   1.0000   1.0000   1.0000   1.0000   1.0000   1.0000   1.0000
     1.0000   1.0000   1.0000   1.0000   1.0000   1.0000   1.0000   1.0000
     1.0000   1.0000   1.0000   1.0000   1.0000   1.0000   1.0000   1.0000
     1.0000   1.0000   1.0000   1.0000   1.0000   1.0000   1.0000   1.0000
     1.0000   1.0000   1.0000   1.0000   1.0000   1.0000   1.0000   1.0000
     1.0000   1.0000   1.0000   1.0000   1.0000   1.0000   1.0000   1.0000
     1.0000   1.0000   1.0000   1.0000   1.0000   1.0000   1.0000   1.0000
     1.0000   1.0000   1.0000   1.0000   1.0000   1.0000   1.0000   1.0000
     1.0000   1.0000   1.0000   1.0000   1.0000   1.0000   1.0000   1.0000
     1.0000   1.0000   1.0000   1.0000   1.0000   1.0000   1.0000   1.0000
     1.0000   1.0000   1.0000   1.0000   1.0000   1.0000   1.0000   1.0000
     1.0000   1.0000   1.0000   1.0000   1.0000   1.0000   1.0000   1.0000
     1.0000   1.0000   1.0000   1.0000   1.0000   1.0000   1.0000   1.0000
     1.0000   1.0000   1.0000   1.0000   1.0000   1.0000   1.0000   1.0000
     1.0000   1.0000   1.0000   1.0000   1.0000   1.0000   1.0000   1.0000
     1.0000   1.0000   1.0000   1.0000   1.0000   1.0000   1.0000   1.0000
     1.0000   1.0000   1.0000   1.0000   1.0000   1.0000   1.0000   1.0000
     1.0000   1.0000   1.0000   1.0000   1.0000   1.0000   1.0000   1.0000
     1.0000   1.0000   1.0000   1.0000   1.0000   1.0000   1.0000   1.0000
     1.0000   1.0000   1.0000   1.0000   1.0000   1.0000   1.0000   1.0000
     1.0000   1.0000   1.0000   1.0000   1.0000   1.0000   1.0000   1.0000
     1.0000   1.0000   1.0000   1.0000   1.0000   1.0000   1.0000   1.0000
     1.0000   1.0000   1.0000   1.0000   0.9998   0.0002   0.0001   0.0000
     0.0000   0.0000   0.0000   0.0000   0.0000   0.0000   0.0000   0.0000
     0.0000   0.0000   0.0000   0.0000   0.0000   0.0000   0.0000   0.0000
     0.0000   0.0000   0.0000   0.0000   0.0000   0.0000   0.0000   0.0000
     0.0000   0.0000   0.0000   0.0000   0.0000   0.0000   0.0000   0.0000
     0.0000   0.0000   0.0000   0.0000   0.0000   0.0000

          k = 0.1667 0.2887 0.0000 (126343 PWs)   bands (ev):

   -60.3625 -60.3565 -60.3557 -60.3442 -60.3382 -60.3376 -60.3322 -60.3095
   -60.3094 -60.3077 -60.3004 -60.3002 -60.2962 -60.2919 -60.2759 -60.2758
   -34.6536 -34.6476 -34.6078 -34.6043 -34.5992 -34.5826 -34.5761 -34.5591
   -34.5405 -34.5286 -34.5010 -34.4940 -34.4734 -34.4659 -34.4563 -34.4549
   -34.4530 -34.4422 -34.4385 -34.4338 -34.4302 -34.4278 -34.4259 -34.4245
   -34.4066 -34.4048 -34.4024 -34.3969 -34.3940 -34.3906 -34.3879 -34.3869
   -34.3844 -34.3791 -34.3780 -34.3736 -34.3670 -34.3590 -34.3568 -34.3562
   -34.3471 -34.3442 -34.3356 -34.3077 -34.3026 -34.2938 -34.2203 -34.2156
   -13.3901 -12.9927 -12.9561 -12.6429 -12.5770 -12.3170 -12.3004 -12.1407
   -12.0391 -11.9862 -11.9695 -11.8641 -11.8522 -11.8290 -11.7964 -11.7653
   -11.7474 -11.6995 -11.6912 -11.6257 -11.6002 -11.5879 -11.5360 -11.5301
   -11.5029 -11.4944 -11.4883 -11.4463 -11.4052 -11.3973 -11.3513  -5.0922
    -5.0004  -4.9986  -4.8979  -4.6661  -4.6417  -4.6151  -4.5765  -4.5490
    -4.5415  -4.5216  -4.5079  -4.4887  -4.4477  -4.4416  -4.3861  -4.3608
    -4.2936  -4.2340  -4.2004  -4.0976  -4.0514  -3.9810  -3.8798  -3.7083
    -3.4495  -3.4470  -3.4375  -3.4140  -3.3553  -3.3263  -3.2884  -3.2689
    -3.2319  -3.2250  -3.1870  -3.1740  -3.1334  -3.1159  -3.0531  -2.9767
    -2.9358  -2.8894  -2.8207  -2.7778  -2.6920  -2.6662  -2.6225  -2.5994
    -2.5710  -2.5441  -2.5161  -2.4801  -2.3931  -2.3608  -2.3048  -2.2786
    -2.2576  -2.2341  -2.2131  -2.1443  -2.0544  -1.9571  -1.8708  -1.7769
    -1.7428  -1.7414  -1.6481  -1.6190  -1.5962  -1.4710  -1.3833  -1.3387
    -1.3121  -1.2583  -1.2394  -1.2277  -1.1978  -1.1329  -1.0999  -1.0527
    -0.9972  -0.9643  -0.9516  -0.9187  -0.8270  -0.7973  -0.7368  -0.6815
    -0.6217  -0.5906  -0.5455  -0.5253  -0.3534  -0.3396  -0.2291  -0.1972
    -0.1390  -0.1343  -0.1146  -0.0996  -0.0507   0.0639   0.1222   0.1520
     0.2130   0.2200   0.3426   0.4467   0.6337   1.7384   1.7622   2.4057
     2.5926   2.6062   2.6304   2.6677   2.6821   2.7089   2.7238   2.7438
     2.7677   2.7759   2.8094   2.8317   2.8577   2.8802   2.9243   2.9819
     3.0051   3.0415   3.0698   3.1020   3.1359   3.1531   3.1707   3.1795
     3.2172   3.2335   3.2936   3.3027   3.3039   3.3651   3.3824   3.4630
     3.5314   3.5517   3.6340   3.6841   3.7089   3.7220

     occupation numbers 
     1.0000   1.0000   1.0000   1.0000   1.0000   1.0000   1.0000   1.0000
     1.0000   1.0000   1.0000   1.0000   1.0000   1.0000   1.0000   1.0000
     1.0000   1.0000   1.0000   1.0000   1.0000   1.0000   1.0000   1.0000
     1.0000   1.0000   1.0000   1.0000   1.0000   1.0000   1.0000   1.0000
     1.0000   1.0000   1.0000   1.0000   1.0000   1.0000   1.0000   1.0000
     1.0000   1.0000   1.0000   1.0000   1.0000   1.0000   1.0000   1.0000
     1.0000   1.0000   1.0000   1.0000   1.0000   1.0000   1.0000   1.0000
     1.0000   1.0000   1.0000   1.0000   1.0000   1.0000   1.0000   1.0000
     1.0000   1.0000   1.0000   1.0000   1.0000   1.0000   1.0000   1.0000
     1.0000   1.0000   1.0000   1.0000   1.0000   1.0000   1.0000   1.0000
     1.0000   1.0000   1.0000   1.0000   1.0000   1.0000   1.0000   1.0000
     1.0000   1.0000   1.0000   1.0000   1.0000   1.0000   1.0000   1.0000
     1.0000   1.0000   1.0000   1.0000   1.0000   1.0000   1.0000   1.0000
     1.0000   1.0000   1.0000   1.0000   1.0000   1.0000   1.0000   1.0000
     1.0000   1.0000   1.0000   1.0000   1.0000   1.0000   1.0000   1.0000
     1.0000   1.0000   1.0000   1.0000   1.0000   1.0000   1.0000   1.0000
     1.0000   1.0000   1.0000   1.0000   1.0000   1.0000   1.0000   1.0000
     1.0000   1.0000   1.0000   1.0000   1.0000   1.0000   1.0000   1.0000
     1.0000   1.0000   1.0000   1.0000   1.0000   1.0000   1.0000   1.0000
     1.0000   1.0000   1.0000   1.0000   1.0000   1.0000   1.0000   1.0000
     1.0000   1.0000   1.0000   1.0000   1.0000   1.0000   1.0000   1.0000
     1.0000   1.0000   1.0000   1.0000   1.0000   1.0000   1.0000   1.0000
     1.0000   1.0000   1.0000   1.0000   1.0000   1.0000   1.0000   1.0000
     1.0000   1.0000   1.0000   1.0000   1.0000   1.0000   1.0000   1.0000
     1.0000   1.0000   1.0000   1.0000   1.0000   1.0000   1.0000   1.0000
     1.0000   1.0000   1.0000   1.0000   0.9996   0.0002   0.0002   0.0000
     0.0000   0.0000   0.0000   0.0000   0.0000   0.0000   0.0000   0.0000
     0.0000   0.0000   0.0000   0.0000   0.0000   0.0000   0.0000   0.0000
     0.0000   0.0000   0.0000   0.0000   0.0000   0.0000   0.0000   0.0000
     0.0000   0.0000   0.0000   0.0000   0.0000   0.0000   0.0000   0.0000
     0.0000   0.0000   0.0000   0.0000   0.0000   0.0000

          k = 0.1667 0.4811 0.0000 (126406 PWs)   bands (ev):

   -60.3620 -60.3571 -60.3557 -60.3440 -60.3385 -60.3376 -60.3320 -60.3094
   -60.3092 -60.3077 -60.3007 -60.3005 -60.2960 -60.2918 -60.2760 -60.2758
   -34.6458 -34.6330 -34.6152 -34.6058 -34.6003 -34.5869 -34.5731 -34.5613
   -34.5555 -34.5310 -34.5168 -34.4974 -34.4721 -34.4715 -34.4588 -34.4546
   -34.4489 -34.4423 -34.4412 -34.4325 -34.4274 -34.4245 -34.4206 -34.4080
   -34.4065 -34.4044 -34.4015 -34.3978 -34.3916 -34.3898 -34.3872 -34.3834
   -34.3798 -34.3781 -34.3725 -34.3710 -34.3638 -34.3577 -34.3572 -34.3556
   -34.3537 -34.3419 -34.3370 -34.3159 -34.3068 -34.2941 -34.2237 -34.2163
   -13.2962 -13.1515 -13.0127 -12.6499 -12.4315 -12.2425 -12.1614 -12.1141
   -12.0847 -12.0500 -12.0059 -11.9760 -11.8927 -11.8494 -11.8111 -11.7696
   -11.7511 -11.6864 -11.6423 -11.6229 -11.6084 -11.5814 -11.5682 -11.5468
   -11.5061 -11.5004 -11.4743 -11.4214 -11.4081 -11.3767 -11.3299  -4.9620
    -4.8878  -4.8803  -4.7951  -4.7833  -4.7547  -4.7131  -4.6823  -4.6410
    -4.6260  -4.6033  -4.5555  -4.5014  -4.4855  -4.4133  -4.3639  -4.3491
    -4.2721  -4.2533  -4.1030  -4.0543  -3.9670  -3.8753  -3.7799  -3.6584
    -3.5742  -3.4188  -3.4074  -3.3835  -3.3536  -3.3403  -3.3241  -3.3085
    -3.2956  -3.2794  -3.2669  -3.2324  -3.2270  -3.1418  -3.1012  -3.0031
    -2.9152  -2.8191  -2.7432  -2.6952  -2.6593  -2.6274  -2.5979  -2.5764
    -2.5471  -2.5132  -2.4984  -2.4792  -2.4509  -2.4258  -2.3946  -2.3785
    -2.2999  -2.2560  -2.1584  -2.0324  -1.9991  -1.8643  -1.8144  -1.7706
    -1.6944  -1.6723  -1.6037  -1.4989  -1.4796  -1.4477  -1.3952  -1.3608
    -1.3539  -1.3387  -1.3049  -1.2615  -1.2209  -1.2098  -1.1625  -1.1223
    -1.0869  -1.0309  -0.9939  -0.9683  -0.8912  -0.7974  -0.7617  -0.6903
    -0.5724  -0.5501  -0.4537  -0.4346  -0.3289  -0.3026  -0.2613  -0.2412
    -0.2219  -0.1894  -0.1089  -0.0953  -0.0550   0.1079   0.1474   0.2159
     0.2869   0.3581   0.4438   0.4645   0.5764   1.7321   1.7811   2.2815
     2.5271   2.5362   2.5975   2.6269   2.6668   2.6849   2.7087   2.7228
     2.7626   2.7889   2.7974   2.8303   2.8888   2.9545   2.9838   3.0007
     3.0247   3.0417   3.0592   3.0729   3.0844   3.1051   3.1113   3.1244
     3.1560   3.1674   3.1944   3.2387   3.3035   3.3442   3.4124   3.4487
     3.5313   3.5836   3.6736   3.7149   3.7535   3.7651

     occupation numbers 
     1.0000   1.0000   1.0000   1.0000   1.0000   1.0000   1.0000   1.0000
     1.0000   1.0000   1.0000   1.0000   1.0000   1.0000   1.0000   1.0000
     1.0000   1.0000   1.0000   1.0000   1.0000   1.0000   1.0000   1.0000
     1.0000   1.0000   1.0000   1.0000   1.0000   1.0000   1.0000   1.0000
     1.0000   1.0000   1.0000   1.0000   1.0000   1.0000   1.0000   1.0000
     1.0000   1.0000   1.0000   1.0000   1.0000   1.0000   1.0000   1.0000
     1.0000   1.0000   1.0000   1.0000   1.0000   1.0000   1.0000   1.0000
     1.0000   1.0000   1.0000   1.0000   1.0000   1.0000   1.0000   1.0000
     1.0000   1.0000   1.0000   1.0000   1.0000   1.0000   1.0000   1.0000
     1.0000   1.0000   1.0000   1.0000   1.0000   1.0000   1.0000   1.0000
     1.0000   1.0000   1.0000   1.0000   1.0000   1.0000   1.0000   1.0000
     1.0000   1.0000   1.0000   1.0000   1.0000   1.0000   1.0000   1.0000
     1.0000   1.0000   1.0000   1.0000   1.0000   1.0000   1.0000   1.0000
     1.0000   1.0000   1.0000   1.0000   1.0000   1.0000   1.0000   1.0000
     1.0000   1.0000   1.0000   1.0000   1.0000   1.0000   1.0000   1.0000
     1.0000   1.0000   1.0000   1.0000   1.0000   1.0000   1.0000   1.0000
     1.0000   1.0000   1.0000   1.0000   1.0000   1.0000   1.0000   1.0000
     1.0000   1.0000   1.0000   1.0000   1.0000   1.0000   1.0000   1.0000
     1.0000   1.0000   1.0000   1.0000   1.0000   1.0000   1.0000   1.0000
     1.0000   1.0000   1.0000   1.0000   1.0000   1.0000   1.0000   1.0000
     1.0000   1.0000   1.0000   1.0000   1.0000   1.0000   1.0000   1.0000
     1.0000   1.0000   1.0000   1.0000   1.0000   1.0000   1.0000   1.0000
     1.0000   1.0000   1.0000   1.0000   1.0000   1.0000   1.0000   1.0000
     1.0000   1.0000   1.0000   1.0000   1.0000   1.0000   1.0000   1.0000
     1.0000   1.0000   1.0000   1.0000   1.0000   1.0000   1.0000   1.0000
     1.0000   1.0000   1.0000   1.0000   0.9998   0.0002   0.0001   0.0000
     0.0000   0.0000   0.0000   0.0000   0.0000   0.0000   0.0000   0.0000
     0.0000   0.0000   0.0000   0.0000   0.0000   0.0000   0.0000   0.0000
     0.0000   0.0000   0.0000   0.0000   0.0000   0.0000   0.0000   0.0000
     0.0000   0.0000   0.0000   0.0000   0.0000   0.0000   0.0000   0.0000
     0.0000   0.0000   0.0000   0.0000   0.0000   0.0000

          k = 0.3333 0.5774 0.0000 (126429 PWs)   bands (ev):

   -60.3618 -60.3572 -60.3558 -60.3439 -60.3385 -60.3376 -60.3319 -60.3094
   -60.3092 -60.3076 -60.3007 -60.3006 -60.2959 -60.2918 -60.2759 -60.2758
   -34.6412 -34.6291 -34.6167 -34.6036 -34.5970 -34.5931 -34.5822 -34.5617
   -34.5564 -34.5249 -34.5221 -34.5037 -34.4709 -34.4682 -34.4587 -34.4564
   -34.4559 -34.4409 -34.4322 -34.4276 -34.4262 -34.4240 -34.4231 -34.4217
   -34.4074 -34.4039 -34.3978 -34.3918 -34.3914 -34.3876 -34.3875 -34.3828
   -34.3785 -34.3760 -34.3717 -34.3641 -34.3617 -34.3591 -34.3583 -34.3567
   -34.3552 -34.3436 -34.3323 -34.3240 -34.3069 -34.2948 -34.2243 -34.2169
   -13.2021 -13.1909 -13.1290 -12.4792 -12.4741 -12.3888 -12.0806 -12.0581
   -12.0504 -11.9925 -11.9868 -11.9633 -11.9537 -11.9526 -11.8332 -11.7856
   -11.7762 -11.7216 -11.6021 -11.5944 -11.5650 -11.5640 -11.5617 -11.5568
   -11.5527 -11.5361 -11.4697 -11.3978 -11.3937 -11.3904 -11.3216  -4.8529
    -4.7967  -4.7950  -4.7836  -4.7781  -4.7638  -4.7566  -4.7563  -4.6885
    -4.6848  -4.6752  -4.6085  -4.5956  -4.4882  -4.4382  -4.3680  -4.3163
    -4.2628  -4.2590  -3.9500  -3.9330  -3.8692  -3.8520  -3.8519  -3.7567
    -3.6943  -3.4428  -3.3691  -3.3676  -3.3644  -3.3530  -3.3260  -3.3024
    -3.2952  -3.2859  -3.2815  -3.2420  -3.1791  -3.1781  -3.0434  -3.0206
    -2.9568  -2.8164  -2.7360  -2.6328  -2.6223  -2.6005  -2.5916  -2.5788
    -2.5711  -2.5578  -2.5345  -2.5177  -2.5165  -2.5126  -2.4529  -2.3828
    -2.1671  -2.1642  -2.0495  -2.0197  -2.0132  -1.7981  -1.7750  -1.7461
    -1.7360  -1.6824  -1.5953  -1.5377  -1.5045  -1.4931  -1.4751  -1.4220
    -1.3359  -1.3051  -1.2664  -1.2213  -1.1823  -1.0796  -1.0782  -1.0705
    -1.0630  -1.0561  -1.0514  -1.0511  -1.0395  -1.0247  -0.7716  -0.6599
    -0.5560  -0.4855  -0.4490  -0.4047  -0.2815  -0.2432  -0.2427  -0.2215
    -0.2160  -0.2051  -0.1800  -0.1634  -0.1204   0.1622   0.1734   0.2515
     0.3342   0.3829   0.4265   0.5131   0.5478   1.7238   1.7950   2.2155
     2.4957   2.5751   2.5810   2.6382   2.6542   2.6595   2.6992   2.7271
     2.7425   2.7910   2.7941   2.8175   2.9577   2.9637   2.9900   2.9980
     3.0397   3.0450   3.0467   3.0642   3.0673   3.0696   3.0789   3.1108
     3.1332   3.1469   3.1846   3.2112   3.2517   3.2918   3.3728   3.5502
     3.5556   3.6586   3.6773   3.6843   3.7680   3.8106

     occupation numbers 
     1.0000   1.0000   1.0000   1.0000   1.0000   1.0000   1.0000   1.0000
     1.0000   1.0000   1.0000   1.0000   1.0000   1.0000   1.0000   1.0000
     1.0000   1.0000   1.0000   1.0000   1.0000   1.0000   1.0000   1.0000
     1.0000   1.0000   1.0000   1.0000   1.0000   1.0000   1.0000   1.0000
     1.0000   1.0000   1.0000   1.0000   1.0000   1.0000   1.0000   1.0000
     1.0000   1.0000   1.0000   1.0000   1.0000   1.0000   1.0000   1.0000
     1.0000   1.0000   1.0000   1.0000   1.0000   1.0000   1.0000   1.0000
     1.0000   1.0000   1.0000   1.0000   1.0000   1.0000   1.0000   1.0000
     1.0000   1.0000   1.0000   1.0000   1.0000   1.0000   1.0000   1.0000
     1.0000   1.0000   1.0000   1.0000   1.0000   1.0000   1.0000   1.0000
     1.0000   1.0000   1.0000   1.0000   1.0000   1.0000   1.0000   1.0000
     1.0000   1.0000   1.0000   1.0000   1.0000   1.0000   1.0000   1.0000
     1.0000   1.0000   1.0000   1.0000   1.0000   1.0000   1.0000   1.0000
     1.0000   1.0000   1.0000   1.0000   1.0000   1.0000   1.0000   1.0000
     1.0000   1.0000   1.0000   1.0000   1.0000   1.0000   1.0000   1.0000
     1.0000   1.0000   1.0000   1.0000   1.0000   1.0000   1.0000   1.0000
     1.0000   1.0000   1.0000   1.0000   1.0000   1.0000   1.0000   1.0000
     1.0000   1.0000   1.0000   1.0000   1.0000   1.0000   1.0000   1.0000
     1.0000   1.0000   1.0000   1.0000   1.0000   1.0000   1.0000   1.0000
     1.0000   1.0000   1.0000   1.0000   1.0000   1.0000   1.0000   1.0000
     1.0000   1.0000   1.0000   1.0000   1.0000   1.0000   1.0000   1.0000
     1.0000   1.0000   1.0000   1.0000   1.0000   1.0000   1.0000   1.0000
     1.0000   1.0000   1.0000   1.0000   1.0000   1.0000   1.0000   1.0000
     1.0000   1.0000   1.0000   1.0000   1.0000   1.0000   1.0000   1.0000
     1.0000   1.0000   1.0000   1.0000   1.0000   1.0000   1.0000   1.0000
     1.0000   1.0000   1.0000   0.9999   0.9999   0.0003   0.0001   0.0000
     0.0000   0.0000   0.0000   0.0000   0.0000   0.0000   0.0000   0.0000
     0.0000   0.0000   0.0000   0.0000   0.0000   0.0000   0.0000   0.0000
     0.0000   0.0000   0.0000   0.0000   0.0000   0.0000   0.0000   0.0000
     0.0000   0.0000   0.0000   0.0000   0.0000   0.0000   0.0000   0.0000
     0.0000   0.0000   0.0000   0.0000   0.0000   0.0000

 ------ SPIN DOWN ----------


          k = 0.0000 0.0000 0.0000 (126355 PWs)   bands (ev):

   -60.3631 -60.3556 -60.3556 -60.3446 -60.3377 -60.3377 -60.3326 -60.3096
   -60.3095 -60.3078 -60.2999 -60.2999 -60.2965 -60.2920 -60.2759 -60.2758
   -34.6616 -34.6615 -34.6168 -34.5968 -34.5894 -34.5894 -34.5647 -34.5647
   -34.5255 -34.4862 -34.4752 -34.4744 -34.4743 -34.4724 -34.4724 -34.4520
   -34.4520 -34.4505 -34.4481 -34.4389 -34.4351 -34.4321 -34.4321 -34.4291
   -34.4291 -34.4050 -34.4050 -34.4008 -34.4008 -34.3973 -34.3864 -34.3864
   -34.3856 -34.3855 -34.3781 -34.3773 -34.3671 -34.3671 -34.3571 -34.3569
   -34.3374 -34.3374 -34.3345 -34.3059 -34.2933 -34.2932 -34.2148 -34.2147
   -13.4636 -12.7115 -12.7114 -12.6843 -12.6726 -12.6726 -12.5519 -12.1693
   -11.8956 -11.8955 -11.8463 -11.8454 -11.8453 -11.8114 -11.7199 -11.7198
   -11.7104 -11.7103 -11.6946 -11.6754 -11.6754 -11.6675 -11.5562 -11.4804
   -11.4803 -11.4569 -11.4568 -11.4389 -11.4389 -11.4338 -11.4275  -5.2009
    -5.0979  -5.0979  -4.9846  -4.5262  -4.5259  -4.5259  -4.4952  -4.4746
    -4.4746  -4.4252  -4.4109  -4.4109  -4.3877  -4.3877  -4.3662  -4.3117
    -4.3117  -4.2852  -4.2637  -4.2352  -4.2352  -4.1432  -3.9413  -3.9413
    -3.4823  -3.4822  -3.4374  -3.3186  -3.2618  -3.2495  -3.2495  -3.1798
    -3.1798  -3.0886  -3.0515  -3.0406  -3.0406  -3.0317  -3.0316  -2.9952
    -2.9727  -2.9727  -2.8491  -2.8491  -2.7262  -2.6705  -2.6705  -2.6417
    -2.6130  -2.6130  -2.5887  -2.4486  -2.4436  -2.4436  -2.3211  -2.3211
    -2.2978  -2.2436  -2.1594  -2.1594  -2.0293  -2.0293  -1.9358  -1.9230
    -1.9230  -1.9040  -1.6024  -1.6024  -1.2952  -1.2912  -1.2911  -1.2886
    -1.2731  -1.2731  -1.1833  -1.1562  -1.1053  -1.1053  -1.0600  -1.0600
    -1.0356  -1.0010  -1.0010  -0.9163  -0.8485  -0.8485  -0.7943  -0.7395
    -0.7395  -0.5403  -0.5403  -0.4565  -0.2466  -0.1686  -0.1685  -0.1369
    -0.1242  -0.1196  -0.1196  -0.0466  -0.0466  -0.0030  -0.0030   0.0265
     0.0362   0.0777   0.0778   0.4336   0.6833   1.7428   1.7428   2.6688
     2.6827   2.6926   2.6927   2.7272   2.7272   2.7372   2.7468   2.7468
     2.7719   2.7719   2.8084   2.8150   2.8150   2.8647   2.9097   2.9218
     2.9218   2.9775   3.1576   3.1576   3.2742   3.2942   3.2942   3.3259
     3.3259   3.3443   3.3544   3.3544   3.3851   3.4176   3.4176   3.4551
     3.4551   3.4640   3.5090   3.5090   3.5978   3.6603

     occupation numbers 
     1.0000   1.0000   1.0000   1.0000   1.0000   1.0000   1.0000   1.0000
     1.0000   1.0000   1.0000   1.0000   1.0000   1.0000   1.0000   1.0000
     1.0000   1.0000   1.0000   1.0000   1.0000   1.0000   1.0000   1.0000
     1.0000   1.0000   1.0000   1.0000   1.0000   1.0000   1.0000   1.0000
     1.0000   1.0000   1.0000   1.0000   1.0000   1.0000   1.0000   1.0000
     1.0000   1.0000   1.0000   1.0000   1.0000   1.0000   1.0000   1.0000
     1.0000   1.0000   1.0000   1.0000   1.0000   1.0000   1.0000   1.0000
     1.0000   1.0000   1.0000   1.0000   1.0000   1.0000   1.0000   1.0000
     1.0000   1.0000   1.0000   1.0000   1.0000   1.0000   1.0000   1.0000
     1.0000   1.0000   1.0000   1.0000   1.0000   1.0000   1.0000   1.0000
     1.0000   1.0000   1.0000   1.0000   1.0000   1.0000   1.0000   1.0000
     1.0000   1.0000   1.0000   1.0000   1.0000   1.0000   1.0000   1.0000
     1.0000   1.0000   1.0000   1.0000   1.0000   1.0000   1.0000   1.0000
     1.0000   1.0000   1.0000   1.0000   1.0000   1.0000   1.0000   1.0000
     1.0000   1.0000   1.0000   1.0000   1.0000   1.0000   1.0000   1.0000
     1.0000   1.0000   1.0000   1.0000   1.0000   1.0000   1.0000   1.0000
     1.0000   1.0000   1.0000   1.0000   1.0000   1.0000   1.0000   1.0000
     1.0000   1.0000   1.0000   1.0000   1.0000   1.0000   1.0000   1.0000
     1.0000   1.0000   1.0000   1.0000   1.0000   1.0000   1.0000   1.0000
     1.0000   1.0000   1.0000   1.0000   1.0000   1.0000   1.0000   1.0000
     1.0000   1.0000   1.0000   1.0000   1.0000   1.0000   1.0000   1.0000
     1.0000   1.0000   1.0000   1.0000   1.0000   1.0000   1.0000   1.0000
     1.0000   1.0000   1.0000   1.0000   1.0000   1.0000   1.0000   1.0000
     1.0000   1.0000   1.0000   1.0000   1.0000   1.0000   1.0000   1.0000
     1.0000   1.0000   1.0000   1.0000   1.0000   1.0000   1.0000   1.0000
     1.0000   1.0000   1.0000   1.0000   0.9992   0.0002   0.0002   0.0000
     0.0000   0.0000   0.0000   0.0000   0.0000   0.0000   0.0000   0.0000
     0.0000   0.0000   0.0000   0.0000   0.0000   0.0000   0.0000   0.0000
     0.0000   0.0000   0.0000   0.0000   0.0000   0.0000   0.0000   0.0000
     0.0000   0.0000   0.0000   0.0000   0.0000   0.0000   0.0000   0.0000
     0.0000   0.0000   0.0000   0.0000   0.0000   0.0000

          k = 0.0000 0.1925 0.0000 (126305 PWs)   bands (ev):

   -60.3629 -60.3560 -60.3556 -60.3444 -60.3379 -60.3377 -60.3325 -60.3095
   -60.3095 -60.3078 -60.3001 -60.3000 -60.2963 -60.2919 -60.2759 -60.2758
   -34.6588 -34.6567 -34.6134 -34.5994 -34.5914 -34.5887 -34.5693 -34.5616
   -34.5322 -34.5083 -34.4914 -34.4831 -34.4747 -34.4679 -34.4560 -34.4537
   -34.4522 -34.4442 -34.4438 -34.4395 -34.4348 -34.4288 -34.4279 -34.4240
   -34.4209 -34.4053 -34.4053 -34.4032 -34.3970 -34.3951 -34.3877 -34.3874
   -34.3852 -34.3783 -34.3781 -34.3732 -34.3680 -34.3671 -34.3570 -34.3569
   -34.3416 -34.3400 -34.3342 -34.3062 -34.2968 -34.2934 -34.2170 -34.2150
   -13.4389 -12.8939 -12.7920 -12.7477 -12.5590 -12.5119 -12.4253 -12.1595
   -11.9505 -11.9180 -11.8861 -11.8627 -11.8452 -11.8111 -11.7853 -11.7620
   -11.7168 -11.7089 -11.6814 -11.6774 -11.6254 -11.5804 -11.5453 -11.5183
   -11.4994 -11.4822 -11.4674 -11.4453 -11.4368 -11.4029 -11.3838  -5.1637
    -5.0645  -5.0639  -4.9552  -4.5843  -4.5506  -4.5491  -4.5345  -4.5190
    -4.4893  -4.4689  -4.4406  -4.4285  -4.4215  -4.4069  -4.3883  -4.3882
    -4.3001  -4.2679  -4.2507  -4.1639  -4.0944  -4.0858  -3.9103  -3.8885
    -3.4691  -3.4687  -3.4184  -3.3335  -3.3036  -3.2763  -3.2740  -3.1924
    -3.1625  -3.1591  -3.1305  -3.1077  -3.0988  -3.0841  -3.0766  -3.0087
    -3.0031  -2.8991  -2.7593  -2.7523  -2.6932  -2.6759  -2.6442  -2.6419
    -2.5930  -2.5880  -2.5607  -2.5558  -2.5417  -2.3937  -2.2974  -2.2913
    -2.1614  -2.1499  -2.1120  -2.0999  -2.0630  -2.0149  -1.9992  -1.9721
    -1.9261  -1.8009  -1.6356  -1.5984  -1.4362  -1.4126  -1.3180  -1.2943
    -1.2472  -1.2415  -1.2225  -1.2083  -1.1500  -1.1443  -1.0679  -1.0625
    -1.0192  -0.9635  -0.9116  -0.9040  -0.8224  -0.7994  -0.7502  -0.6731
    -0.6620  -0.6118  -0.6030  -0.5137  -0.3302  -0.2625  -0.2277  -0.1575
    -0.1313  -0.1285  -0.0507  -0.0382  -0.0301   0.0144   0.0147   0.0359
     0.1126   0.1861   0.1906   0.4383   0.6668   1.7428   1.7479   2.5689
     2.5840   2.6821   2.6894   2.7111   2.7185   2.7224   2.7318   2.7581
     2.7632   2.7863   2.7941   2.8270   2.8302   2.8663   2.8919   2.9633
     2.9713   3.0058   3.1111   3.1167   3.1879   3.2228   3.2408   3.2533
     3.2835   3.2894   3.3203   3.3422   3.3689   3.3809   3.4208   3.4378
     3.5153   3.5333   3.6077   3.6271   3.6434   3.6453

     occupation numbers 
     1.0000   1.0000   1.0000   1.0000   1.0000   1.0000   1.0000   1.0000
     1.0000   1.0000   1.0000   1.0000   1.0000   1.0000   1.0000   1.0000
     1.0000   1.0000   1.0000   1.0000   1.0000   1.0000   1.0000   1.0000
     1.0000   1.0000   1.0000   1.0000   1.0000   1.0000   1.0000   1.0000
     1.0000   1.0000   1.0000   1.0000   1.0000   1.0000   1.0000   1.0000
     1.0000   1.0000   1.0000   1.0000   1.0000   1.0000   1.0000   1.0000
     1.0000   1.0000   1.0000   1.0000   1.0000   1.0000   1.0000   1.0000
     1.0000   1.0000   1.0000   1.0000   1.0000   1.0000   1.0000   1.0000
     1.0000   1.0000   1.0000   1.0000   1.0000   1.0000   1.0000   1.0000
     1.0000   1.0000   1.0000   1.0000   1.0000   1.0000   1.0000   1.0000
     1.0000   1.0000   1.0000   1.0000   1.0000   1.0000   1.0000   1.0000
     1.0000   1.0000   1.0000   1.0000   1.0000   1.0000   1.0000   1.0000
     1.0000   1.0000   1.0000   1.0000   1.0000   1.0000   1.0000   1.0000
     1.0000   1.0000   1.0000   1.0000   1.0000   1.0000   1.0000   1.0000
     1.0000   1.0000   1.0000   1.0000   1.0000   1.0000   1.0000   1.0000
     1.0000   1.0000   1.0000   1.0000   1.0000   1.0000   1.0000   1.0000
     1.0000   1.0000   1.0000   1.0000   1.0000   1.0000   1.0000   1.0000
     1.0000   1.0000   1.0000   1.0000   1.0000   1.0000   1.0000   1.0000
     1.0000   1.0000   1.0000   1.0000   1.0000   1.0000   1.0000   1.0000
     1.0000   1.0000   1.0000   1.0000   1.0000   1.0000   1.0000   1.0000
     1.0000   1.0000   1.0000   1.0000   1.0000   1.0000   1.0000   1.0000
     1.0000   1.0000   1.0000   1.0000   1.0000   1.0000   1.0000   1.0000
     1.0000   1.0000   1.0000   1.0000   1.0000   1.0000   1.0000   1.0000
     1.0000   1.0000   1.0000   1.0000   1.0000   1.0000   1.0000   1.0000
     1.0000   1.0000   1.0000   1.0000   1.0000   1.0000   1.0000   1.0000
     1.0000   1.0000   1.0000   1.0000   0.9994   0.0002   0.0002   0.0000
     0.0000   0.0000   0.0000   0.0000   0.0000   0.0000   0.0000   0.0000
     0.0000   0.0000   0.0000   0.0000   0.0000   0.0000   0.0000   0.0000
     0.0000   0.0000   0.0000   0.0000   0.0000   0.0000   0.0000   0.0000
     0.0000   0.0000   0.0000   0.0000   0.0000   0.0000   0.0000   0.0000
     0.0000   0.0000   0.0000   0.0000   0.0000   0.0000

          k = 0.0000 0.3849 0.0000 (126328 PWs)   bands (ev):

   -60.3623 -60.3567 -60.3556 -60.3441 -60.3383 -60.3376 -60.3321 -60.3094
   -60.3093 -60.3077 -60.3005 -60.3003 -60.2961 -60.2918 -60.2759 -60.2758
   -34.6515 -34.6432 -34.6101 -34.6060 -34.5950 -34.5906 -34.5714 -34.5538
   -34.5486 -34.5335 -34.5099 -34.4847 -34.4758 -34.4728 -34.4586 -34.4561
   -34.4527 -34.4419 -34.4333 -34.4311 -34.4306 -34.4272 -34.4256 -34.4121
   -34.4081 -34.4057 -34.4040 -34.3971 -34.3919 -34.3909 -34.3889 -34.3853
   -34.3830 -34.3784 -34.3766 -34.3766 -34.3663 -34.3575 -34.3569 -34.3526
   -34.3499 -34.3454 -34.3358 -34.3073 -34.3069 -34.2933 -34.2217 -34.2156
   -13.3662 -13.0841 -12.8520 -12.7989 -12.4018 -12.3667 -12.2140 -12.1312
   -12.0440 -12.0373 -11.9908 -11.9354 -11.8959 -11.8248 -11.7522 -11.7373
   -11.7057 -11.6830 -11.6814 -11.6686 -11.6305 -11.5936 -11.5610 -11.5215
   -11.5016 -11.4754 -11.4646 -11.4457 -11.4372 -11.3728 -11.3476  -5.0585
    -4.9706  -4.9674  -4.8702  -4.7244  -4.6766  -4.6597  -4.6159  -4.6070
    -4.5744  -4.5099  -4.4993  -4.4381  -4.4237  -4.4073  -4.3631  -4.3539
    -4.3070  -4.2478  -4.2271  -4.1706  -4.0302  -3.9352  -3.7419  -3.7116
    -3.5318  -3.4306  -3.4281  -3.3749  -3.3304  -3.3090  -3.3069  -3.2876
    -3.2623  -3.2447  -3.2386  -3.2013  -3.1550  -3.1516  -3.1252  -3.0068
    -2.9346  -2.7975  -2.6957  -2.6823  -2.6531  -2.6370  -2.6273  -2.6265
    -2.5979  -2.5609  -2.5422  -2.4824  -2.4392  -2.4106  -2.3810  -2.3248
    -2.3076  -2.2387  -2.1082  -2.0827  -2.0140  -1.9358  -1.8526  -1.7597
    -1.7481  -1.6838  -1.6801  -1.5780  -1.5745  -1.4683  -1.3838  -1.3651
    -1.3192  -1.3106  -1.2285  -1.2215  -1.1718  -1.1640  -1.1361  -1.1244
    -1.0141  -1.0053  -0.9506  -0.9080  -0.8172  -0.7877  -0.7481  -0.6809
    -0.6174  -0.6057  -0.5013  -0.4642  -0.3848  -0.3118  -0.2701  -0.2351
    -0.2008  -0.1947  -0.0113   0.0063   0.0180   0.0392   0.0516   0.0661
     0.2931   0.3216   0.3291   0.4526   0.6178   1.7427   1.7614   2.4263
     2.4572   2.6066   2.6342   2.6558   2.6882   2.6960   2.7203   2.7401
     2.7578   2.7740   2.8038   2.8443   2.8728   2.8997   2.9315   2.9949
     3.0089   3.0445   3.0647   3.0947   3.1035   3.1216   3.1473   3.1755
     3.2021   3.2528   3.2726   3.3022   3.3428   3.3514   3.3712   3.4667
     3.5110   3.5343   3.5803   3.6557   3.7387   3.7430

     occupation numbers 
     1.0000   1.0000   1.0000   1.0000   1.0000   1.0000   1.0000   1.0000
     1.0000   1.0000   1.0000   1.0000   1.0000   1.0000   1.0000   1.0000
     1.0000   1.0000   1.0000   1.0000   1.0000   1.0000   1.0000   1.0000
     1.0000   1.0000   1.0000   1.0000   1.0000   1.0000   1.0000   1.0000
     1.0000   1.0000   1.0000   1.0000   1.0000   1.0000   1.0000   1.0000
     1.0000   1.0000   1.0000   1.0000   1.0000   1.0000   1.0000   1.0000
     1.0000   1.0000   1.0000   1.0000   1.0000   1.0000   1.0000   1.0000
     1.0000   1.0000   1.0000   1.0000   1.0000   1.0000   1.0000   1.0000
     1.0000   1.0000   1.0000   1.0000   1.0000   1.0000   1.0000   1.0000
     1.0000   1.0000   1.0000   1.0000   1.0000   1.0000   1.0000   1.0000
     1.0000   1.0000   1.0000   1.0000   1.0000   1.0000   1.0000   1.0000
     1.0000   1.0000   1.0000   1.0000   1.0000   1.0000   1.0000   1.0000
     1.0000   1.0000   1.0000   1.0000   1.0000   1.0000   1.0000   1.0000
     1.0000   1.0000   1.0000   1.0000   1.0000   1.0000   1.0000   1.0000
     1.0000   1.0000   1.0000   1.0000   1.0000   1.0000   1.0000   1.0000
     1.0000   1.0000   1.0000   1.0000   1.0000   1.0000   1.0000   1.0000
     1.0000   1.0000   1.0000   1.0000   1.0000   1.0000   1.0000   1.0000
     1.0000   1.0000   1.0000   1.0000   1.0000   1.0000   1.0000   1.0000
     1.0000   1.0000   1.0000   1.0000   1.0000   1.0000   1.0000   1.0000
     1.0000   1.0000   1.0000   1.0000   1.0000   1.0000   1.0000   1.0000
     1.0000   1.0000   1.0000   1.0000   1.0000   1.0000   1.0000   1.0000
     1.0000   1.0000   1.0000   1.0000   1.0000   1.0000   1.0000   1.0000
     1.0000   1.0000   1.0000   1.0000   1.0000   1.0000   1.0000   1.0000
     1.0000   1.0000   1.0000   1.0000   1.0000   1.0000   1.0000   1.0000
     1.0000   1.0000   1.0000   1.0000   1.0000   1.0000   1.0000   1.0000
     1.0000   1.0000   1.0000   1.0000   0.9997   0.0002   0.0002   0.0000
     0.0000   0.0000   0.0000   0.0000   0.0000   0.0000   0.0000   0.0000
     0.0000   0.0000   0.0000   0.0000   0.0000   0.0000   0.0000   0.0000
     0.0000   0.0000   0.0000   0.0000   0.0000   0.0000   0.0000   0.0000
     0.0000   0.0000   0.0000   0.0000   0.0000   0.0000   0.0000   0.0000
     0.0000   0.0000   0.0000   0.0000   0.0000   0.0000

          k = 0.0000-0.5774 0.0000 (126288 PWs)   bands (ev):

   -60.3620 -60.3571 -60.3556 -60.3440 -60.3385 -60.3376 -60.3320 -60.3094
   -60.3093 -60.3077 -60.3007 -60.3004 -60.2960 -60.2918 -60.2760 -60.2758
   -34.6461 -34.6292 -34.6175 -34.6141 -34.5934 -34.5896 -34.5691 -34.5578
   -34.5479 -34.5457 -34.5196 -34.4810 -34.4799 -34.4717 -34.4655 -34.4595
   -34.4529 -34.4426 -34.4323 -34.4271 -34.4249 -34.4217 -34.4213 -34.4077
   -34.4055 -34.4052 -34.3985 -34.3966 -34.3964 -34.3904 -34.3897 -34.3891
   -34.3815 -34.3782 -34.3688 -34.3678 -34.3672 -34.3585 -34.3573 -34.3556
   -34.3552 -34.3377 -34.3369 -34.3161 -34.3081 -34.2931 -34.2243 -34.2159
   -13.2680 -13.2225 -12.8724 -12.8171 -12.2458 -12.2296 -12.2230 -12.1582
   -12.0966 -12.0763 -12.0181 -11.9522 -11.9436 -11.9005 -11.7090 -11.7054
   -11.6991 -11.6754 -11.6663 -11.6627 -11.6581 -11.6014 -11.5960 -11.5517
   -11.4807 -11.4616 -11.4565 -11.4425 -11.4373 -11.3618 -11.3346  -4.9259
    -4.8773  -4.8662  -4.8473  -4.7892  -4.7853  -4.7597  -4.7103  -4.6584
    -4.6575  -4.4956  -4.4934  -4.4504  -4.4375  -4.4139  -4.3410  -4.3289
    -4.2980  -4.2448  -4.2297  -4.1457  -4.0337  -3.8100  -3.7349  -3.5667
    -3.5071  -3.4366  -3.4357  -3.3824  -3.3718  -3.3634  -3.3335  -3.3315
    -3.3056  -3.2944  -3.2812  -3.2401  -3.1970  -3.1738  -3.1297  -2.9902
    -2.9560  -2.6687  -2.6604  -2.6326  -2.6308  -2.6004  -2.5884  -2.5713
    -2.5642  -2.5578  -2.5502  -2.5251  -2.5190  -2.4304  -2.4277  -2.3916
    -2.3575  -2.2303  -2.1075  -2.0369  -2.0207  -1.9290  -1.8534  -1.8287
    -1.6928  -1.5091  -1.4962  -1.4371  -1.4060  -1.3997  -1.3970  -1.3739
    -1.3597  -1.3521  -1.3287  -1.3142  -1.2905  -1.2154  -1.1908  -1.1727
    -1.1654  -1.1628  -0.9594  -0.9309  -0.8073  -0.7236  -0.7024  -0.6550
    -0.6354  -0.5974  -0.4399  -0.4136  -0.3564  -0.3170  -0.2963  -0.2700
    -0.2516  -0.2223   0.0011   0.0324   0.0331   0.0489   0.0691   0.0793
     0.3704   0.3804   0.4024   0.4688   0.5696   1.7421   1.7701   2.3623
     2.4023   2.5687   2.5979   2.6093   2.6590   2.6841   2.7171   2.7410
     2.7603   2.7702   2.8058   2.8372   2.8853   2.9946   3.0038   3.0194
     3.0256   3.0415   3.0463   3.0576   3.0621   3.0736   3.0770   3.1305
     3.1448   3.2034   3.2992   3.3031   3.3254   3.3276   3.3453   3.4979
     3.5184   3.5309   3.6202   3.6613   3.6817   3.7434

     occupation numbers 
     1.0000   1.0000   1.0000   1.0000   1.0000   1.0000   1.0000   1.0000
     1.0000   1.0000   1.0000   1.0000   1.0000   1.0000   1.0000   1.0000
     1.0000   1.0000   1.0000   1.0000   1.0000   1.0000   1.0000   1.0000
     1.0000   1.0000   1.0000   1.0000   1.0000   1.0000   1.0000   1.0000
     1.0000   1.0000   1.0000   1.0000   1.0000   1.0000   1.0000   1.0000
     1.0000   1.0000   1.0000   1.0000   1.0000   1.0000   1.0000   1.0000
     1.0000   1.0000   1.0000   1.0000   1.0000   1.0000   1.0000   1.0000
     1.0000   1.0000   1.0000   1.0000   1.0000   1.0000   1.0000   1.0000
     1.0000   1.0000   1.0000   1.0000   1.0000   1.0000   1.0000   1.0000
     1.0000   1.0000   1.0000   1.0000   1.0000   1.0000   1.0000   1.0000
     1.0000   1.0000   1.0000   1.0000   1.0000   1.0000   1.0000   1.0000
     1.0000   1.0000   1.0000   1.0000   1.0000   1.0000   1.0000   1.0000
     1.0000   1.0000   1.0000   1.0000   1.0000   1.0000   1.0000   1.0000
     1.0000   1.0000   1.0000   1.0000   1.0000   1.0000   1.0000   1.0000
     1.0000   1.0000   1.0000   1.0000   1.0000   1.0000   1.0000   1.0000
     1.0000   1.0000   1.0000   1.0000   1.0000   1.0000   1.0000   1.0000
     1.0000   1.0000   1.0000   1.0000   1.0000   1.0000   1.0000   1.0000
     1.0000   1.0000   1.0000   1.0000   1.0000   1.0000   1.0000   1.0000
     1.0000   1.0000   1.0000   1.0000   1.0000   1.0000   1.0000   1.0000
     1.0000   1.0000   1.0000   1.0000   1.0000   1.0000   1.0000   1.0000
     1.0000   1.0000   1.0000   1.0000   1.0000   1.0000   1.0000   1.0000
     1.0000   1.0000   1.0000   1.0000   1.0000   1.0000   1.0000   1.0000
     1.0000   1.0000   1.0000   1.0000   1.0000   1.0000   1.0000   1.0000
     1.0000   1.0000   1.0000   1.0000   1.0000   1.0000   1.0000   1.0000
     1.0000   1.0000   1.0000   1.0000   1.0000   1.0000   1.0000   1.0000
     1.0000   1.0000   1.0000   1.0000   0.9998   0.0002   0.0001   0.0000
     0.0000   0.0000   0.0000   0.0000   0.0000   0.0000   0.0000   0.0000
     0.0000   0.0000   0.0000   0.0000   0.0000   0.0000   0.0000   0.0000
     0.0000   0.0000   0.0000   0.0000   0.0000   0.0000   0.0000   0.0000
     0.0000   0.0000   0.0000   0.0000   0.0000   0.0000   0.0000   0.0000
     0.0000   0.0000   0.0000   0.0000   0.0000   0.0000

          k = 0.1667 0.2887 0.0000 (126343 PWs)   bands (ev):

   -60.3625 -60.3565 -60.3557 -60.3442 -60.3382 -60.3376 -60.3322 -60.3095
   -60.3094 -60.3077 -60.3004 -60.3002 -60.2962 -60.2919 -60.2759 -60.2758
   -34.6536 -34.6476 -34.6078 -34.6043 -34.5992 -34.5826 -34.5761 -34.5591
   -34.5405 -34.5286 -34.5010 -34.4940 -34.4734 -34.4659 -34.4563 -34.4549
   -34.4530 -34.4422 -34.4385 -34.4338 -34.4302 -34.4278 -34.4259 -34.4245
   -34.4066 -34.4048 -34.4024 -34.3969 -34.3940 -34.3906 -34.3879 -34.3869
   -34.3844 -34.3791 -34.3780 -34.3736 -34.3670 -34.3590 -34.3568 -34.3562
   -34.3471 -34.3442 -34.3356 -34.3077 -34.3026 -34.2938 -34.2203 -34.2156
   -13.3901 -12.9927 -12.9561 -12.6429 -12.5770 -12.3170 -12.3004 -12.1407
   -12.0391 -11.9862 -11.9695 -11.8641 -11.8522 -11.8290 -11.7964 -11.7653
   -11.7474 -11.6995 -11.6912 -11.6257 -11.6002 -11.5879 -11.5360 -11.5301
   -11.5029 -11.4944 -11.4883 -11.4463 -11.4052 -11.3973 -11.3513  -5.0922
    -5.0004  -4.9986  -4.8979  -4.6661  -4.6417  -4.6151  -4.5765  -4.5490
    -4.5415  -4.5216  -4.5079  -4.4887  -4.4477  -4.4416  -4.3861  -4.3608
    -4.2936  -4.2340  -4.2004  -4.0976  -4.0514  -3.9810  -3.8798  -3.7083
    -3.4495  -3.4470  -3.4375  -3.4140  -3.3553  -3.3263  -3.2884  -3.2689
    -3.2319  -3.2250  -3.1870  -3.1740  -3.1334  -3.1159  -3.0531  -2.9767
    -2.9358  -2.8894  -2.8207  -2.7778  -2.6920  -2.6662  -2.6225  -2.5994
    -2.5710  -2.5441  -2.5161  -2.4801  -2.3931  -2.3608  -2.3048  -2.2786
    -2.2576  -2.2341  -2.2131  -2.1443  -2.0544  -1.9571  -1.8708  -1.7769
    -1.7428  -1.7414  -1.6481  -1.6190  -1.5962  -1.4710  -1.3833  -1.3387
    -1.3121  -1.2583  -1.2394  -1.2277  -1.1978  -1.1329  -1.0999  -1.0527
    -0.9972  -0.9643  -0.9516  -0.9187  -0.8270  -0.7973  -0.7368  -0.6815
    -0.6217  -0.5906  -0.5455  -0.5253  -0.3534  -0.3396  -0.2291  -0.1972
    -0.1390  -0.1343  -0.1146  -0.0996  -0.0507   0.0639   0.1222   0.1520
     0.2130   0.2200   0.3426   0.4467   0.6337   1.7384   1.7622   2.4057
     2.5926   2.6062   2.6304   2.6677   2.6821   2.7089   2.7238   2.7438
     2.7677   2.7759   2.8094   2.8317   2.8577   2.8802   2.9243   2.9819
     3.0051   3.0415   3.0698   3.1020   3.1359   3.1531   3.1707   3.1795
     3.2172   3.2335   3.2936   3.3027   3.3039   3.3651   3.3824   3.4630
     3.5314   3.5517   3.6340   3.6841   3.7089   3.7220

     occupation numbers 
     1.0000   1.0000   1.0000   1.0000   1.0000   1.0000   1.0000   1.0000
     1.0000   1.0000   1.0000   1.0000   1.0000   1.0000   1.0000   1.0000
     1.0000   1.0000   1.0000   1.0000   1.0000   1.0000   1.0000   1.0000
     1.0000   1.0000   1.0000   1.0000   1.0000   1.0000   1.0000   1.0000
     1.0000   1.0000   1.0000   1.0000   1.0000   1.0000   1.0000   1.0000
     1.0000   1.0000   1.0000   1.0000   1.0000   1.0000   1.0000   1.0000
     1.0000   1.0000   1.0000   1.0000   1.0000   1.0000   1.0000   1.0000
     1.0000   1.0000   1.0000   1.0000   1.0000   1.0000   1.0000   1.0000
     1.0000   1.0000   1.0000   1.0000   1.0000   1.0000   1.0000   1.0000
     1.0000   1.0000   1.0000   1.0000   1.0000   1.0000   1.0000   1.0000
     1.0000   1.0000   1.0000   1.0000   1.0000   1.0000   1.0000   1.0000
     1.0000   1.0000   1.0000   1.0000   1.0000   1.0000   1.0000   1.0000
     1.0000   1.0000   1.0000   1.0000   1.0000   1.0000   1.0000   1.0000
     1.0000   1.0000   1.0000   1.0000   1.0000   1.0000   1.0000   1.0000
     1.0000   1.0000   1.0000   1.0000   1.0000   1.0000   1.0000   1.0000
     1.0000   1.0000   1.0000   1.0000   1.0000   1.0000   1.0000   1.0000
     1.0000   1.0000   1.0000   1.0000   1.0000   1.0000   1.0000   1.0000
     1.0000   1.0000   1.0000   1.0000   1.0000   1.0000   1.0000   1.0000
     1.0000   1.0000   1.0000   1.0000   1.0000   1.0000   1.0000   1.0000
     1.0000   1.0000   1.0000   1.0000   1.0000   1.0000   1.0000   1.0000
     1.0000   1.0000   1.0000   1.0000   1.0000   1.0000   1.0000   1.0000
     1.0000   1.0000   1.0000   1.0000   1.0000   1.0000   1.0000   1.0000
     1.0000   1.0000   1.0000   1.0000   1.0000   1.0000   1.0000   1.0000
     1.0000   1.0000   1.0000   1.0000   1.0000   1.0000   1.0000   1.0000
     1.0000   1.0000   1.0000   1.0000   1.0000   1.0000   1.0000   1.0000
     1.0000   1.0000   1.0000   1.0000   0.9996   0.0002   0.0002   0.0000
     0.0000   0.0000   0.0000   0.0000   0.0000   0.0000   0.0000   0.0000
     0.0000   0.0000   0.0000   0.0000   0.0000   0.0000   0.0000   0.0000
     0.0000   0.0000   0.0000   0.0000   0.0000   0.0000   0.0000   0.0000
     0.0000   0.0000   0.0000   0.0000   0.0000   0.0000   0.0000   0.0000
     0.0000   0.0000   0.0000   0.0000   0.0000   0.0000

          k = 0.1667 0.4811 0.0000 (126406 PWs)   bands (ev):

   -60.3620 -60.3571 -60.3557 -60.3440 -60.3385 -60.3376 -60.3320 -60.3094
   -60.3092 -60.3077 -60.3007 -60.3005 -60.2960 -60.2918 -60.2760 -60.2758
   -34.6458 -34.6330 -34.6152 -34.6058 -34.6003 -34.5869 -34.5731 -34.5613
   -34.5555 -34.5310 -34.5168 -34.4974 -34.4721 -34.4715 -34.4588 -34.4546
   -34.4489 -34.4423 -34.4412 -34.4325 -34.4274 -34.4245 -34.4206 -34.4080
   -34.4065 -34.4044 -34.4015 -34.3978 -34.3916 -34.3898 -34.3872 -34.3834
   -34.3798 -34.3781 -34.3725 -34.3710 -34.3638 -34.3577 -34.3572 -34.3556
   -34.3537 -34.3419 -34.3370 -34.3159 -34.3068 -34.2941 -34.2237 -34.2163
   -13.2962 -13.1515 -13.0127 -12.6499 -12.4315 -12.2425 -12.1614 -12.1141
   -12.0847 -12.0500 -12.0059 -11.9760 -11.8927 -11.8494 -11.8111 -11.7696
   -11.7511 -11.6864 -11.6423 -11.6229 -11.6084 -11.5814 -11.5682 -11.5468
   -11.5061 -11.5004 -11.4743 -11.4214 -11.4081 -11.3767 -11.3299  -4.9620
    -4.8878  -4.8803  -4.7951  -4.7833  -4.7547  -4.7131  -4.6823  -4.6410
    -4.6260  -4.6033  -4.5555  -4.5014  -4.4855  -4.4133  -4.3639  -4.3491
    -4.2721  -4.2533  -4.1030  -4.0543  -3.9670  -3.8753  -3.7799  -3.6584
    -3.5742  -3.4188  -3.4074  -3.3835  -3.3536  -3.3403  -3.3241  -3.3085
    -3.2956  -3.2794  -3.2669  -3.2324  -3.2270  -3.1418  -3.1012  -3.0031
    -2.9152  -2.8191  -2.7432  -2.6952  -2.6593  -2.6274  -2.5979  -2.5764
    -2.5471  -2.5132  -2.4984  -2.4792  -2.4509  -2.4258  -2.3946  -2.3785
    -2.2999  -2.2560  -2.1584  -2.0324  -1.9991  -1.8643  -1.8144  -1.7706
    -1.6944  -1.6723  -1.6037  -1.4989  -1.4796  -1.4477  -1.3952  -1.3608
    -1.3539  -1.3387  -1.3049  -1.2615  -1.2209  -1.2098  -1.1625  -1.1223
    -1.0869  -1.0309  -0.9939  -0.9683  -0.8912  -0.7974  -0.7617  -0.6903
    -0.5724  -0.5501  -0.4537  -0.4346  -0.3289  -0.3026  -0.2613  -0.2412
    -0.2219  -0.1894  -0.1089  -0.0953  -0.0550   0.1079   0.1474   0.2159
     0.2869   0.3581   0.4438   0.4645   0.5764   1.7321   1.7811   2.2815
     2.5271   2.5362   2.5975   2.6269   2.6668   2.6849   2.7087   2.7228
     2.7626   2.7889   2.7974   2.8303   2.8888   2.9545   2.9838   3.0007
     3.0247   3.0417   3.0592   3.0729   3.0844   3.1051   3.1113   3.1244
     3.1560   3.1674   3.1944   3.2387   3.3035   3.3442   3.4124   3.4487
     3.5313   3.5836   3.6736   3.7149   3.7535   3.7651

     occupation numbers 
     1.0000   1.0000   1.0000   1.0000   1.0000   1.0000   1.0000   1.0000
     1.0000   1.0000   1.0000   1.0000   1.0000   1.0000   1.0000   1.0000
     1.0000   1.0000   1.0000   1.0000   1.0000   1.0000   1.0000   1.0000
     1.0000   1.0000   1.0000   1.0000   1.0000   1.0000   1.0000   1.0000
     1.0000   1.0000   1.0000   1.0000   1.0000   1.0000   1.0000   1.0000
     1.0000   1.0000   1.0000   1.0000   1.0000   1.0000   1.0000   1.0000
     1.0000   1.0000   1.0000   1.0000   1.0000   1.0000   1.0000   1.0000
     1.0000   1.0000   1.0000   1.0000   1.0000   1.0000   1.0000   1.0000
     1.0000   1.0000   1.0000   1.0000   1.0000   1.0000   1.0000   1.0000
     1.0000   1.0000   1.0000   1.0000   1.0000   1.0000   1.0000   1.0000
     1.0000   1.0000   1.0000   1.0000   1.0000   1.0000   1.0000   1.0000
     1.0000   1.0000   1.0000   1.0000   1.0000   1.0000   1.0000   1.0000
     1.0000   1.0000   1.0000   1.0000   1.0000   1.0000   1.0000   1.0000
     1.0000   1.0000   1.0000   1.0000   1.0000   1.0000   1.0000   1.0000
     1.0000   1.0000   1.0000   1.0000   1.0000   1.0000   1.0000   1.0000
     1.0000   1.0000   1.0000   1.0000   1.0000   1.0000   1.0000   1.0000
     1.0000   1.0000   1.0000   1.0000   1.0000   1.0000   1.0000   1.0000
     1.0000   1.0000   1.0000   1.0000   1.0000   1.0000   1.0000   1.0000
     1.0000   1.0000   1.0000   1.0000   1.0000   1.0000   1.0000   1.0000
     1.0000   1.0000   1.0000   1.0000   1.0000   1.0000   1.0000   1.0000
     1.0000   1.0000   1.0000   1.0000   1.0000   1.0000   1.0000   1.0000
     1.0000   1.0000   1.0000   1.0000   1.0000   1.0000   1.0000   1.0000
     1.0000   1.0000   1.0000   1.0000   1.0000   1.0000   1.0000   1.0000
     1.0000   1.0000   1.0000   1.0000   1.0000   1.0000   1.0000   1.0000
     1.0000   1.0000   1.0000   1.0000   1.0000   1.0000   1.0000   1.0000
     1.0000   1.0000   1.0000   1.0000   0.9998   0.0002   0.0001   0.0000
     0.0000   0.0000   0.0000   0.0000   0.0000   0.0000   0.0000   0.0000
     0.0000   0.0000   0.0000   0.0000   0.0000   0.0000   0.0000   0.0000
     0.0000   0.0000   0.0000   0.0000   0.0000   0.0000   0.0000   0.0000
     0.0000   0.0000   0.0000   0.0000   0.0000   0.0000   0.0000   0.0000
     0.0000   0.0000   0.0000   0.0000   0.0000   0.0000

          k = 0.3333 0.5774 0.0000 (126429 PWs)   bands (ev):

   -60.3618 -60.3572 -60.3558 -60.3439 -60.3385 -60.3376 -60.3319 -60.3094
   -60.3092 -60.3076 -60.3007 -60.3006 -60.2959 -60.2918 -60.2759 -60.2758
   -34.6412 -34.6291 -34.6167 -34.6036 -34.5970 -34.5931 -34.5822 -34.5617
   -34.5564 -34.5249 -34.5221 -34.5037 -34.4709 -34.4682 -34.4587 -34.4564
   -34.4559 -34.4409 -34.4322 -34.4276 -34.4262 -34.4240 -34.4231 -34.4217
   -34.4074 -34.4039 -34.3978 -34.3918 -34.3914 -34.3876 -34.3875 -34.3828
   -34.3785 -34.3760 -34.3717 -34.3641 -34.3617 -34.3591 -34.3583 -34.3567
   -34.3552 -34.3436 -34.3323 -34.3240 -34.3069 -34.2948 -34.2243 -34.2169
   -13.2021 -13.1909 -13.1290 -12.4792 -12.4741 -12.3888 -12.0806 -12.0581
   -12.0504 -11.9925 -11.9868 -11.9633 -11.9537 -11.9526 -11.8332 -11.7856
   -11.7762 -11.7216 -11.6021 -11.5944 -11.5650 -11.5640 -11.5617 -11.5568
   -11.5527 -11.5361 -11.4697 -11.3978 -11.3937 -11.3904 -11.3216  -4.8529
    -4.7967  -4.7950  -4.7836  -4.7781  -4.7638  -4.7566  -4.7563  -4.6885
    -4.6848  -4.6752  -4.6085  -4.5956  -4.4882  -4.4382  -4.3680  -4.3163
    -4.2628  -4.2590  -3.9500  -3.9330  -3.8692  -3.8520  -3.8519  -3.7567
    -3.6943  -3.4428  -3.3691  -3.3676  -3.3644  -3.3530  -3.3260  -3.3024
    -3.2952  -3.2859  -3.2815  -3.2420  -3.1791  -3.1781  -3.0434  -3.0206
    -2.9568  -2.8164  -2.7360  -2.6328  -2.6223  -2.6005  -2.5916  -2.5788
    -2.5711  -2.5578  -2.5345  -2.5177  -2.5165  -2.5126  -2.4529  -2.3828
    -2.1671  -2.1642  -2.0495  -2.0197  -2.0132  -1.7981  -1.7750  -1.7461
    -1.7360  -1.6824  -1.5953  -1.5377  -1.5045  -1.4931  -1.4751  -1.4220
    -1.3359  -1.3051  -1.2664  -1.2213  -1.1823  -1.0796  -1.0782  -1.0705
    -1.0630  -1.0561  -1.0514  -1.0511  -1.0395  -1.0247  -0.7716  -0.6599
    -0.5560  -0.4855  -0.4490  -0.4047  -0.2815  -0.2432  -0.2427  -0.2215
    -0.2160  -0.2051  -0.1800  -0.1634  -0.1204   0.1622   0.1734   0.2515
     0.3342   0.3829   0.4265   0.5131   0.5478   1.7238   1.7950   2.2155
     2.4957   2.5751   2.5810   2.6382   2.6542   2.6595   2.6992   2.7271
     2.7425   2.7910   2.7941   2.8175   2.9577   2.9637   2.9900   2.9980
     3.0397   3.0450   3.0467   3.0642   3.0673   3.0696   3.0789   3.1108
     3.1332   3.1469   3.1846   3.2112   3.2517   3.2918   3.3728   3.5502
     3.5556   3.6586   3.6773   3.6843   3.7680   3.8106

     occupation numbers 
     1.0000   1.0000   1.0000   1.0000   1.0000   1.0000   1.0000   1.0000
     1.0000   1.0000   1.0000   1.0000   1.0000   1.0000   1.0000   1.0000
     1.0000   1.0000   1.0000   1.0000   1.0000   1.0000   1.0000   1.0000
     1.0000   1.0000   1.0000   1.0000   1.0000   1.0000   1.0000   1.0000
     1.0000   1.0000   1.0000   1.0000   1.0000   1.0000   1.0000   1.0000
     1.0000   1.0000   1.0000   1.0000   1.0000   1.0000   1.0000   1.0000
     1.0000   1.0000   1.0000   1.0000   1.0000   1.0000   1.0000   1.0000
     1.0000   1.0000   1.0000   1.0000   1.0000   1.0000   1.0000   1.0000
     1.0000   1.0000   1.0000   1.0000   1.0000   1.0000   1.0000   1.0000
     1.0000   1.0000   1.0000   1.0000   1.0000   1.0000   1.0000   1.0000
     1.0000   1.0000   1.0000   1.0000   1.0000   1.0000   1.0000   1.0000
     1.0000   1.0000   1.0000   1.0000   1.0000   1.0000   1.0000   1.0000
     1.0000   1.0000   1.0000   1.0000   1.0000   1.0000   1.0000   1.0000
     1.0000   1.0000   1.0000   1.0000   1.0000   1.0000   1.0000   1.0000
     1.0000   1.0000   1.0000   1.0000   1.0000   1.0000   1.0000   1.0000
     1.0000   1.0000   1.0000   1.0000   1.0000   1.0000   1.0000   1.0000
     1.0000   1.0000   1.0000   1.0000   1.0000   1.0000   1.0000   1.0000
     1.0000   1.0000   1.0000   1.0000   1.0000   1.0000   1.0000   1.0000
     1.0000   1.0000   1.0000   1.0000   1.0000   1.0000   1.0000   1.0000
     1.0000   1.0000   1.0000   1.0000   1.0000   1.0000   1.0000   1.0000
     1.0000   1.0000   1.0000   1.0000   1.0000   1.0000   1.0000   1.0000
     1.0000   1.0000   1.0000   1.0000   1.0000   1.0000   1.0000   1.0000
     1.0000   1.0000   1.0000   1.0000   1.0000   1.0000   1.0000   1.0000
     1.0000   1.0000   1.0000   1.0000   1.0000   1.0000   1.0000   1.0000
     1.0000   1.0000   1.0000   1.0000   1.0000   1.0000   1.0000   1.0000
     1.0000   1.0000   1.0000   0.9999   0.9999   0.0003   0.0001   0.0000
     0.0000   0.0000   0.0000   0.0000   0.0000   0.0000   0.0000   0.0000
     0.0000   0.0000   0.0000   0.0000   0.0000   0.0000   0.0000   0.0000
     0.0000   0.0000   0.0000   0.0000   0.0000   0.0000   0.0000   0.0000
     0.0000   0.0000   0.0000   0.0000   0.0000   0.0000   0.0000   0.0000
     0.0000   0.0000   0.0000   0.0000   0.0000   0.0000

     the Fermi energy is     1.1665 ev

!    total energy              =   -2979.42708390 Ry
     estimated scf accuracy    <          6.9E-11 Ry
     smearing contrib. (-TS)   =      -0.00007063 Ry
     internal energy E=F+TS    =   -2979.42701326 Ry

     The total energy is F=E-TS. E is the sum of the following terms:
     one-electron contribution =  -11135.47039609 Ry
     hartree contribution      =    5595.38592924 Ry
     xc contribution           =    -571.47962563 Ry
     ewald contribution        =    3132.13707921 Ry

     total magnetization       =     0.00 Bohr mag/cell
     absolute magnetization    =     0.00 Bohr mag/cell

     convergence has been achieved in  11 iterations

     negative rho (up, down):  1.432E-03 1.432E-03

     Forces acting on atoms (cartesian axes, Ry/au):

     atom    1 type  1   force =    -0.00035558   -0.00046568    0.00006243
     atom    2 type  1   force =    -0.00058108   -0.00007511    0.00006243
     atom    3 type  1   force =     0.00000000    0.00009280    0.00008501
     atom    4 type  1   force =     0.00008037   -0.00004640    0.00008501
     atom    5 type  1   force =     0.00000000    0.00034362    0.00029393
     atom    6 type  1   force =     0.00025770    0.00014879   -0.00125635
     atom    7 type  1   force =     0.00029759   -0.00017181    0.00029393
     atom    8 type  1   force =    -0.00008037   -0.00004640    0.00008501
     atom    9 type  1   force =     0.00035558   -0.00046568    0.00006243
     atom   10 type  1   force =    -0.00025770    0.00014879   -0.00125635
     atom   11 type  1   force =     0.00000000   -0.00029757   -0.00125635
     atom   12 type  1   force =    -0.00022550    0.00054079    0.00006243
     atom   13 type  1   force =     0.00000000    0.00000000    0.00085894
     atom   14 type  1   force =     0.00058108   -0.00007511    0.00006243
     atom   15 type  1   force =    -0.00029759   -0.00017181    0.00029393
     atom   16 type  1   force =     0.00022550    0.00054079    0.00006243
     atom   17 type  2   force =     0.00027756    0.00016025    0.00038110
     atom   18 type  2   force =     0.00000000   -0.00004199    0.00006626
     atom   19 type  2   force =    -0.00012887   -0.00007440    0.00009050
     atom   20 type  2   force =    -0.00003636    0.00002099    0.00006626
     atom   21 type  2   force =     0.00029512   -0.00023748   -0.00021284
     atom   22 type  2   force =    -0.00005811    0.00037432   -0.00021284
     atom   23 type  2   force =     0.00012887   -0.00007440    0.00009050
     atom   24 type  2   force =     0.00000000    0.00014881    0.00009050
     atom   25 type  2   force =    -0.00029512   -0.00023748   -0.00021284
     atom   26 type  2   force =    -0.00035323   -0.00013684   -0.00021284
     atom   27 type  2   force =     0.00003636    0.00002099    0.00006626
     atom   28 type  2   force =    -0.00027756    0.00016025    0.00038110
     atom   29 type  2   force =     0.00005811    0.00037432   -0.00021284
     atom   30 type  2   force =     0.00035323   -0.00013684   -0.00021284
     atom   31 type  2   force =     0.00000000   -0.00032049    0.00038110
     atom   32 type  2   force =    -0.00030041   -0.00017344    0.00045365
     atom   33 type  2   force =     0.00000000    0.00005753    0.00025740
     atom   34 type  2   force =     0.00044900    0.00025923   -0.00010551
     atom   35 type  2   force =     0.00004982   -0.00002876    0.00025740
     atom   36 type  2   force =    -0.00038142   -0.00026578   -0.00028363
     atom   37 type  2   force =    -0.00042089   -0.00019743   -0.00028363
     atom   38 type  2   force =    -0.00044900    0.00025923   -0.00010551
     atom   39 type  2   force =     0.00000000   -0.00051847   -0.00010551
     atom   40 type  2   force =     0.00038142   -0.00026578   -0.00028363
     atom   41 type  2   force =     0.00000000    0.00000000    0.00094731
     atom   42 type  2   force =    -0.00003946    0.00046321   -0.00028363
     atom   43 type  2   force =    -0.00004982   -0.00002876    0.00025740
     atom   44 type  2   force =     0.00030041   -0.00017344    0.00045365
     atom   45 type  2   force =     0.00042089   -0.00019743   -0.00028363
     atom   46 type  2   force =     0.00003946    0.00046321   -0.00028363
     atom   47 type  2   force =     0.00000000    0.00034689    0.00045365
     The non-local contrib.  to forces
     atom    1 type  1   force =    -0.00091201    0.00618919    0.00069453
     atom    2 type  1   force =     0.00490399   -0.00388442    0.00069453
     atom    3 type  1   force =     0.00000000    0.00091115   -0.00116444
     atom    4 type  1   force =     0.00078908   -0.00045557   -0.00116444
     atom    5 type  1   force =     0.00000000   -0.00426082    0.00334539
     atom    6 type  1   force =     0.01250511    0.00721983   -0.03052914
     atom    7 type  1   force =    -0.00368998    0.00213041    0.00334539
     atom    8 type  1   force =    -0.00078908   -0.00045557   -0.00116444
     atom    9 type  1   force =     0.00091201    0.00618919    0.00069453
     atom   10 type  1   force =    -0.01250511    0.00721983   -0.03052914
     atom   11 type  1   force =    -0.00000000   -0.01443966   -0.03052914
     atom   12 type  1   force =     0.00581600   -0.00230477    0.00069453
     atom   13 type  1   force =     0.00000000   -0.00000000   -0.00199590
     atom   14 type  1   force =    -0.00490399   -0.00388442    0.00069453
     atom   15 type  1   force =     0.00368998    0.00213041    0.00334539
     atom   16 type  1   force =    -0.00581600   -0.00230477    0.00069453
     atom   17 type  2   force =     0.00107244    0.00061917   -0.28355931
     atom   18 type  2   force =     0.00000000   -0.00290938   -0.28112932
     atom   19 type  2   force =    -0.00063566   -0.00036700   -0.28369905
     atom   20 type  2   force =    -0.00251959    0.00145469   -0.28112932
     atom   21 type  2   force =    -0.00962786   -0.00845525   -0.26794751
     atom   22 type  2   force =    -0.01213639   -0.00411034   -0.26794751
     atom   23 type  2   force =     0.00063566   -0.00036700   -0.28369905
     atom   24 type  2   force =     0.00000000    0.00073400   -0.28369905
     atom   25 type  2   force =     0.00962786   -0.00845525   -0.26794751
     atom   26 type  2   force =    -0.00250853    0.01256559   -0.26794751
     atom   27 type  2   force =     0.00251959    0.00145469   -0.28112932
     atom   28 type  2   force =    -0.00107244    0.00061917   -0.28355931
     atom   29 type  2   force =     0.01213639   -0.00411034   -0.26794751
     atom   30 type  2   force =     0.00250853    0.01256559   -0.26794751
     atom   31 type  2   force =     0.00000000   -0.00123835   -0.28355931
     atom   32 type  2   force =     0.00056693    0.00032732    0.28065440
     atom   33 type  2   force =     0.00000000    0.00312404    0.28182987
     atom   34 type  2   force =     0.00072566    0.00041896    0.28010914
     atom   35 type  2   force =     0.00270550   -0.00156202    0.28182987
     atom   36 type  2   force =     0.00368420    0.00179606    0.28076024
     atom   37 type  2   force =     0.00339753    0.00229258    0.28076024
     atom   38 type  2   force =    -0.00072566    0.00041896    0.28010914
     atom   39 type  2   force =     0.00000000   -0.00083792    0.28010914
     atom   40 type  2   force =    -0.00368420    0.00179606    0.28076024
     atom   41 type  2   force =     0.00000000    0.00000000    0.28182696
     atom   42 type  2   force =    -0.00028667   -0.00408864    0.28076024
     atom   43 type  2   force =    -0.00270550   -0.00156202    0.28182987
     atom   44 type  2   force =    -0.00056693    0.00032732    0.28065440
     atom   45 type  2   force =    -0.00339753    0.00229258    0.28076024
     atom   46 type  2   force =     0.00028667   -0.00408864    0.28076024
     atom   47 type  2   force =    -0.00000000   -0.00065464    0.28065440
     The ionic contribution  to forces
     atom    1 type  1   force =     0.68561385    0.30129329    1.54906908
     atom    2 type  1   force =     0.60371479    0.44314651    1.54906575
     atom    3 type  1   force =     0.00003140    0.12913560    0.65146485
     atom    4 type  1   force =     0.11185215   -0.06457930    0.65146602
     atom    5 type  1   force =     0.00001841    0.56361481    0.50286886
     atom    6 type  1   force =     3.48992995    2.01491821    3.53896851
     atom    7 type  1   force =     0.48805611   -0.28178413    0.50286671
     atom    8 type  1   force =    -0.11182185   -0.06459149    0.65146827
     atom    9 type  1   force =    -0.68561932    0.30130874    1.54906537
     atom   10 type  1   force =    -3.48986407    2.01490284    3.53896321
     atom   11 type  1   force =     0.00001256   -4.02983244    3.53897176
     atom   12 type  1   force =    -0.08192328   -0.74440241    1.54906300
     atom   13 type  1   force =    -0.00001791    0.00001903    1.15766365
     atom   14 type  1   force =    -0.60376947    0.44313130    1.54906468
     atom   15 type  1   force =    -0.48810657   -0.28185211    0.50287186
     atom   16 type  1   force =     0.08189773   -0.74441749    1.54905987
     atom   17 type  2   force =     0.29302469    0.16917316   32.58747947
     atom   18 type  2   force =     0.00000342    0.06083317   32.47152797
     atom   19 type  2   force =    -0.24726990   -0.14276622   32.20289697
     atom   20 type  2   force =     0.05267547   -0.03041028   32.47154656
     atom   21 type  2   force =     0.57656155    1.24773862   32.43751430
     atom   22 type  2   force =     1.36885314   -0.12454526   32.43750720
     atom   23 type  2   force =     0.24727228   -0.14276814   32.20288071
     atom   24 type  2   force =     0.00000270    0.28551962   32.20289569
     atom   25 type  2   force =    -0.57655402    1.24775775   32.43750558
     atom   26 type  2   force =     0.79228954   -1.12319153   32.43750721
     atom   27 type  2   force =    -0.05267968   -0.03041757   32.47152617
     atom   28 type  2   force =    -0.29302661    0.16917630   32.58747051
     atom   29 type  2   force =    -1.36886634   -0.12455795   32.43749298
     atom   30 type  2   force =    -0.79228898   -1.12319599   32.43750965
     atom   31 type  2   force =    -0.00000086   -0.33834964   32.58748646
     atom   32 type  2   force =    -0.05025624   -0.02901814  -31.92211953
     atom   33 type  2   force =     0.00000312   -0.02677070  -31.91026759
     atom   34 type  2   force =     0.00509495    0.00293417  -31.92223504
     atom   35 type  2   force =    -0.02319208    0.01338734  -31.91029120
     atom   36 type  2   force =    -0.08302944   -0.16675102  -31.97543695
     atom   37 type  2   force =    -0.18592847    0.01147714  -31.97542940
     atom   38 type  2   force =    -0.00508769    0.00293206  -31.92221938
     atom   39 type  2   force =     0.00000320   -0.00588168  -31.92223367
     atom   40 type  2   force =     0.08303521   -0.16672795  -31.97543101
     atom   41 type  2   force =     0.00001391   -0.00000267  -31.82626583
     atom   42 type  2   force =    -0.10290367    0.15527779  -31.97542972
     atom   43 type  2   force =     0.02318805    0.01338415  -31.91026575
     atom   44 type  2   force =     0.05025219   -0.02901552  -31.92210564
     atom   45 type  2   force =     0.18590864    0.01146278  -31.97541841
     atom   46 type  2   force =     0.10289882    0.15527324  -31.97543293
     atom   47 type  2   force =    -0.00000141    0.05803202  -31.92212685
     The local contribution  to forces
     atom    1 type  1   force =    -0.68543022   -0.30764102   -1.54979459
     atom    2 type  1   force =    -0.60925247   -0.43972824   -1.54979420
     atom    3 type  1   force =     0.00013501   -0.13006599   -0.65020558
     atom    4 type  1   force =    -0.11252497    0.06488198   -0.65020492
     atom    5 type  1   force =     0.00006547   -0.55891613   -0.50557748
     atom    6 type  1   force =    -3.50193573   -2.02177675   -3.51279424
     atom    7 type  1   force =    -0.48413258    0.27945471   -0.50557768
     atom    8 type  1   force =     0.11265649    0.06488216   -0.65020533
     atom    9 type  1   force =     0.68542490   -0.30777829   -1.54979385
     atom   10 type  1   force =     3.50207058   -2.02191532   -3.51280082
     atom   11 type  1   force =    -0.00007001    4.04354618   -3.51278764
     atom   12 type  1   force =     0.07610782    0.74736038   -1.54979408
     atom   13 type  1   force =    -0.00014152    0.00004728   -1.15493813
     atom   14 type  1   force =     0.60910818   -0.43972816   -1.54979330
     atom   15 type  1   force =     0.48398793    0.27917832   -0.50557550
     atom   16 type  1   force =    -0.07625162    0.74722123   -1.54979385
     atom   17 type  2   force =    -0.29376032   -0.16961300  -32.31813336
     atom   18 type  2   force =    -0.00000010   -0.05815083  -32.20481385
     atom   19 type  2   force =     0.24770056    0.14301018  -31.93372856
     atom   20 type  2   force =    -0.05036499    0.02908094  -32.20483038
     atom   21 type  2   force =    -0.56725581   -1.24002539  -32.18348741
     atom   22 type  2   force =    -1.35751635    0.12875582  -32.18347142
     atom   23 type  2   force =    -0.24770801    0.14301076  -31.93372845
     atom   24 type  2   force =    -0.00000006   -0.28602999  -31.93372830
     atom   25 type  2   force =     0.56725494   -1.24000061  -32.18350295
     atom   26 type  2   force =    -0.79025627    1.11126020  -32.18347122
     atom   27 type  2   force =     0.05035816    0.02907427  -32.20481382
     atom   28 type  2   force =     0.29376004   -0.16960517  -32.31813337
     atom   29 type  2   force =     1.35750048    0.12874884  -32.18350317
     atom   30 type  2   force =     0.79026423    1.11126024  -32.18348735
     atom   31 type  2   force =     0.00000342    0.33920937  -32.31813357
     atom   32 type  2   force =     0.04940475    0.02851387   31.65632395
     atom   33 type  2   force =     0.00000023    0.02386020   31.64318826
     atom   34 type  2   force =    -0.00532350   -0.00307780   31.65643696
     atom   35 type  2   force =     0.02065786   -0.01192990   31.64322139
     atom   36 type  2   force =     0.07913123    0.16471314   31.70880932
     atom   37 type  2   force =     0.18221348   -0.01382577   31.70879283
     atom   38 type  2   force =     0.00532399   -0.00307781   31.65643692
     atom   39 type  2   force =     0.00000023    0.00614842   31.65643675
     atom   40 type  2   force =    -0.07913040    0.16473491   31.70882619
     atom   41 type  2   force =     0.00001094   -0.00000641   31.55968726
     atom   42 type  2   force =     0.10307880   -0.15089325   31.70879233
     atom   43 type  2   force =    -0.02066475   -0.01192993   31.64318774
     atom   44 type  2   force =    -0.04940420    0.02852122   31.65630713
     atom   45 type  2   force =    -0.18222742   -0.01383343   31.70882627
     atom   46 type  2   force =    -0.10307836   -0.15089326   31.70880900
     atom   47 type  2   force =     0.00000395   -0.05704841   31.65632368
     The core correction contribution to forces
     atom    1 type  1   force =     0.00029517   -0.00024725    0.00009398
     atom    2 type  1   force =    -0.00006596    0.00038004    0.00009399
     atom    3 type  1   force =    -0.00000167    0.00003031   -0.00001342
     atom    4 type  1   force =     0.00002404   -0.00001225   -0.00001341
     atom    5 type  1   force =    -0.00000085   -0.00011971   -0.00034597
     atom    6 type  1   force =    -0.00023705   -0.00013673    0.00309921
     atom    7 type  1   force =    -0.00010333    0.00006115   -0.00034602
     atom    8 type  1   force =    -0.00002575   -0.00001221   -0.00001341
     atom    9 type  1   force =    -0.00029529   -0.00024560    0.00009394
     atom   10 type  1   force =     0.00023526   -0.00013512    0.00309915
     atom   11 type  1   force =     0.00000071    0.00027600    0.00309916
     atom   12 type  1   force =    -0.00036039   -0.00013025    0.00009388
     atom   13 type  1   force =     0.00000152    0.00000024    0.00012302
     atom   14 type  1   force =     0.00006743    0.00038005    0.00009394
     atom   15 type  1   force =     0.00010480    0.00006432   -0.00034605
     atom   16 type  1   force =     0.00036188   -0.00012869    0.00009389
     atom   17 type  2   force =    -0.00005510   -0.00002973    0.01459568
     atom   18 type  2   force =     0.00000008    0.00019248    0.01448118
     atom   19 type  2   force =     0.00007262    0.00004283    0.01462523
     atom   20 type  2   force =     0.00016652   -0.00009566    0.01448209
     atom   21 type  2   force =     0.00061322    0.00049001    0.01371448
     atom   22 type  2   force =     0.00072991    0.00028735    0.01371359
     atom   23 type  2   force =    -0.00007159    0.00004284    0.01462523
     atom   24 type  2   force =     0.00000008   -0.00008192    0.01462522
     atom   25 type  2   force =    -0.00061305    0.00048745    0.01371541
     atom   26 type  2   force =     0.00011635   -0.00077368    0.01371359
     atom   27 type  2   force =    -0.00016553   -0.00009477    0.01448117
     atom   28 type  2   force =     0.00005526   -0.00003058    0.01459568
     atom   29 type  2   force =    -0.00072804    0.00028821    0.01371543
     atom   30 type  2   force =    -0.00011702   -0.00077370    0.01371450
     atom   31 type  2   force =    -0.00000035    0.00006398    0.01459568
     atom   32 type  2   force =    -0.00001641   -0.00000737   -0.01440451
     atom   33 type  2   force =     0.00000010   -0.00014952   -0.01449900
     atom   34 type  2   force =    -0.00004279   -0.00002329   -0.01442267
     atom   35 type  2   force =    -0.00012962    0.00007626   -0.01450084
     atom   36 type  2   force =    -0.00017173   -0.00003632   -0.01442532
     atom   37 type  2   force =    -0.00011840   -0.00012927   -0.01442440
     atom   38 type  2   force =     0.00004299   -0.00002329   -0.01442266
     atom   39 type  2   force =     0.00000010    0.00005044   -0.01442266
     atom   40 type  2   force =     0.00017194   -0.00003885   -0.01442624
     atom   41 type  2   force =    -0.00000118    0.00000181   -0.01430552
     atom   42 type  2   force =     0.00005382    0.00016934   -0.01442442
     atom   43 type  2   force =     0.00013066    0.00007627   -0.01449901
     atom   44 type  2   force =     0.00001660   -0.00000820   -0.01440360
     atom   45 type  2   force =     0.00012029   -0.00012844   -0.01442625
     atom   46 type  2   force =    -0.00005363    0.00016934   -0.01442534
     atom   47 type  2   force =    -0.00000032    0.00002018   -0.01440452
     The Hubbard contrib.    to forces
     atom    1 type  1   force =     0.00000000    0.00000000    0.00000000
     atom    2 type  1   force =     0.00000000    0.00000000    0.00000000
     atom    3 type  1   force =     0.00000000    0.00000000    0.00000000
     atom    4 type  1   force =     0.00000000    0.00000000    0.00000000
     atom    5 type  1   force =     0.00000000    0.00000000    0.00000000
     atom    6 type  1   force =     0.00000000    0.00000000    0.00000000
     atom    7 type  1   force =     0.00000000    0.00000000    0.00000000
     atom    8 type  1   force =     0.00000000    0.00000000    0.00000000
     atom    9 type  1   force =     0.00000000    0.00000000    0.00000000
     atom   10 type  1   force =     0.00000000    0.00000000    0.00000000
     atom   11 type  1   force =     0.00000000    0.00000000    0.00000000
     atom   12 type  1   force =     0.00000000    0.00000000    0.00000000
     atom   13 type  1   force =     0.00000000    0.00000000    0.00000000
     atom   14 type  1   force =     0.00000000    0.00000000    0.00000000
     atom   15 type  1   force =     0.00000000    0.00000000    0.00000000
     atom   16 type  1   force =     0.00000000    0.00000000    0.00000000
     atom   17 type  2   force =     0.00000000    0.00000000    0.00000000
     atom   18 type  2   force =     0.00000000    0.00000000    0.00000000
     atom   19 type  2   force =     0.00000000    0.00000000    0.00000000
     atom   20 type  2   force =     0.00000000    0.00000000    0.00000000
     atom   21 type  2   force =     0.00000000    0.00000000    0.00000000
     atom   22 type  2   force =     0.00000000    0.00000000    0.00000000
     atom   23 type  2   force =     0.00000000    0.00000000    0.00000000
     atom   24 type  2   force =     0.00000000    0.00000000    0.00000000
     atom   25 type  2   force =     0.00000000    0.00000000    0.00000000
     atom   26 type  2   force =     0.00000000    0.00000000    0.00000000
     atom   27 type  2   force =     0.00000000    0.00000000    0.00000000
     atom   28 type  2   force =     0.00000000    0.00000000    0.00000000
     atom   29 type  2   force =     0.00000000    0.00000000    0.00000000
     atom   30 type  2   force =     0.00000000    0.00000000    0.00000000
     atom   31 type  2   force =     0.00000000    0.00000000    0.00000000
     atom   32 type  2   force =     0.00000000    0.00000000    0.00000000
     atom   33 type  2   force =     0.00000000    0.00000000    0.00000000
     atom   34 type  2   force =     0.00000000    0.00000000    0.00000000
     atom   35 type  2   force =     0.00000000    0.00000000    0.00000000
     atom   36 type  2   force =     0.00000000    0.00000000    0.00000000
     atom   37 type  2   force =     0.00000000    0.00000000    0.00000000
     atom   38 type  2   force =     0.00000000    0.00000000    0.00000000
     atom   39 type  2   force =     0.00000000    0.00000000    0.00000000
     atom   40 type  2   force =     0.00000000    0.00000000    0.00000000
     atom   41 type  2   force =     0.00000000    0.00000000    0.00000000
     atom   42 type  2   force =     0.00000000    0.00000000    0.00000000
     atom   43 type  2   force =     0.00000000    0.00000000    0.00000000
     atom   44 type  2   force =     0.00000000    0.00000000    0.00000000
     atom   45 type  2   force =     0.00000000    0.00000000    0.00000000
     atom   46 type  2   force =     0.00000000    0.00000000    0.00000000
     atom   47 type  2   force =     0.00000000    0.00000000    0.00000000
     The SCF correction term to forces
     atom    1 type  1   force =    -0.00000287    0.00000155    0.00000233
     atom    2 type  1   force =    -0.00000009   -0.00000326    0.00000233
     atom    3 type  1   force =    -0.00000000   -0.00000271    0.00000077
     atom    4 type  1   force =    -0.00000234    0.00000135    0.00000077
     atom    5 type  1   force =    -0.00000000    0.00000368    0.00000131
     atom    6 type  1   force =     0.00000359    0.00000207   -0.00000096
     atom    7 type  1   force =     0.00000318   -0.00000184    0.00000131
     atom    8 type  1   force =     0.00000234    0.00000135    0.00000077
     atom    9 type  1   force =     0.00000287    0.00000155    0.00000233
     atom   10 type  1   force =    -0.00000358    0.00000207   -0.00000096
     atom   11 type  1   force =     0.00000000   -0.00000414   -0.00000096
     atom   12 type  1   force =     0.00000277    0.00000171    0.00000233
     atom   13 type  1   force =     0.00000000   -0.00000000    0.00000531
     atom   14 type  1   force =     0.00000009   -0.00000326    0.00000232
     atom   15 type  1   force =    -0.00000318   -0.00000184    0.00000131
     atom   16 type  1   force =    -0.00000278    0.00000171    0.00000232
     atom   17 type  2   force =     0.00000072    0.00000041   -0.00000164
     atom   18 type  2   force =    -0.00000000   -0.00000106   -0.00000111
     atom   19 type  2   force =     0.00000056    0.00000032    0.00000064
     atom   20 type  2   force =    -0.00000092    0.00000053   -0.00000111
     atom   21 type  2   force =    -0.00000196   -0.00000002    0.00000028
     atom   22 type  2   force =    -0.00000100   -0.00000168    0.00000028
     atom   23 type  2   force =    -0.00000056    0.00000032    0.00000064
     atom   24 type  2   force =    -0.00000000   -0.00000064    0.00000064
     atom   25 type  2   force =     0.00000196   -0.00000002    0.00000028
     atom   26 type  2   force =     0.00000096    0.00000170    0.00000028
     atom   27 type  2   force =     0.00000092    0.00000053   -0.00000111
     atom   28 type  2   force =    -0.00000072    0.00000041   -0.00000164
     atom   29 type  2   force =     0.00000100   -0.00000168    0.00000028
     atom   30 type  2   force =    -0.00000096    0.00000170    0.00000028
     atom   31 type  2   force =    -0.00000000   -0.00000083   -0.00000164
     atom   32 type  2   force =     0.00000193    0.00000111    0.00000156
     atom   33 type  2   force =    -0.00000000   -0.00000070    0.00000187
     atom   34 type  2   force =     0.00000106    0.00000061   -0.00000049
     atom   35 type  2   force =    -0.00000060    0.00000035    0.00000187
     atom   36 type  2   force =    -0.00000079    0.00000166    0.00000088
     atom   37 type  2   force =     0.00000104   -0.00000151    0.00000088
     atom   38 type  2   force =    -0.00000106    0.00000061   -0.00000049
     atom   39 type  2   force =    -0.00000000   -0.00000122   -0.00000049
     atom   40 type  2   force =     0.00000079    0.00000166    0.00000088
     atom   41 type  2   force =     0.00000000   -0.00000000    0.00000345
     atom   42 type  2   force =     0.00000183   -0.00000014    0.00000088
     atom   43 type  2   force =     0.00000060    0.00000035    0.00000187
     atom   44 type  2   force =    -0.00000193    0.00000111    0.00000156
     atom   45 type  2   force =    -0.00000104   -0.00000151    0.00000088
     atom   46 type  2   force =    -0.00000183   -0.00000014    0.00000088
     atom   47 type  2   force =    -0.00000000   -0.00000223    0.00000156

     Total force =     0.003895     Total SCF correction =     0.000019
     Energy error            =      2.1E-05 Ry
     Gradient error          =      1.3E-03 Ry/Bohr

     number of scf cycles    =   4
     number of bfgs steps    =   3

     energy             old  =   -2979.4270626917 Ry
     energy             new  =   -2979.4270838965 Ry

     CASE: energy            _new < energy            _old

     new trust radius        =       0.0024943182 bohr
     new conv_thr            =            1.0E-10 Ry


ATOMIC_POSITIONS (angstrom)
Mo               1.6014081235        0.9311288860       11.1769423374
Mo               0.0119286113        3.6841891888       11.1769423374
Mo              -1.5951590000        6.4410142617       11.1662569413
Mo              -3.1952868932        9.2125183692       11.1662569413
Mo               4.7854730000        0.9540644352       11.1451278019
Mo               3.2319948855        3.7079218932       11.1131154790
Mo               1.6238239516        6.4302032824       11.1451278019
Mo               0.0049698932        9.2125183692       11.1662569413
Mo               7.9695388765        0.9311298860       11.1769423374
Mo               6.3389511145        3.7079228932       11.1131154790
Mo               4.7854740000        6.3986272136       11.1131154790
Mo               3.1959944877        9.1991529252       11.1769423374
Mo              11.1661060000        0.9209640000       11.1843475810
Mo               9.5590193887        3.6841891888       11.1769423374
Mo               7.9471240484        6.4302052824       11.1451278019
Mo               6.3749535123        9.1991539252       11.1769423374
S                0.0070293624        1.8459894043       12.7410443066
S               -1.5951580000        4.6089527797       12.7339975494
S               -3.2081724127        7.3574090179       12.7113230695
S               -4.7818973719       10.1285476102       12.7339985494
S                3.2330409105        1.9097665108       12.7065551074
S                1.6752685966        4.6079066026       12.7065541074
S                0.0178574127        7.3574090179       12.7113230695
S               -1.5951580000       10.1512329641       12.7113230695
S                6.3379060895        1.9097635108       12.7065561074
S                3.2277006862        7.2967998866       12.7065541074
S                1.5915823719       10.1285486102       12.7339975494
S                9.5639176376        1.8459884043       12.7410443066
S                7.8956804034        4.6079076026       12.7065561074
S                6.3432453138        7.2967998866       12.7065551074
S                4.7854730000       10.1224951914       12.7410443066
S               -0.0004321531        1.8416814963        9.6244918330
S               -1.5951580000        4.5940834999        9.6170039769
S               -3.1951022256        7.3649556714        9.6074373326
S               -4.7947745459       10.1359832500        9.6170019769
S                3.1758778501        1.8621237165        9.5851572184
S                1.6054271964        4.5822233372        9.5851582184
S                0.0047862256        7.3649556714        9.6074373326
S               -1.5951580000       10.1361396572        9.6074373326
S                6.3950691499        1.8621207165        9.5851562184
S                4.7854720000        4.6048250000        9.5491175696
S                3.2150233463        7.3701259464        9.5851582184
S                1.6044595459       10.1359832500        9.6170039769
S                9.5713791531        1.8416804963        9.6244928330
S                7.9655218036        4.5822243372        9.5851562184
S                6.3559236537        7.3701259464        9.5851572184
S                4.7854730000       10.1311120074        9.6244918330



     Writing config-only to output data dir /home/nihal/Desktop/Otptf/Trial_4.save/ :
     XML data file
     NEW-OLD atomic charge density approx. for the potential

     negative rho (up, down):  1.433E-03 1.433E-03
     Generating pointlists ...

     total cpu time spent up to now is    12332.3 secs

     Self-consistent Calculation

     iteration #  1     ecut=    65.00 Ry     beta= 0.30
     Davidson diagonalization with overlap

---- Real-time Memory Report at c_bands before calling an iterative solver
          2764 MiB given to the printing process from OS
             0 MiB allocation reported by mallinfo(arena+hblkhd)
         14325 MiB available memory on the node where the printing process lives
------------------
     ethr =  1.00E-06,  avg # of iterations =  3.0

     Threshold (ethr) on eigenvalues was too large:
     Diagonalizing with lowered threshold

     Davidson diagonalization with overlap

---- Real-time Memory Report at c_bands before calling an iterative solver
          2764 MiB given to the printing process from OS
             0 MiB allocation reported by mallinfo(arena+hblkhd)
         15037 MiB available memory on the node where the printing process lives
------------------
     ethr =  1.69E-09,  avg # of iterations =  5.0

     negative rho (up, down):  1.433E-03 1.433E-03

     total cpu time spent up to now is    12917.8 secs

     total energy              =   -2979.42710405 Ry
     estimated scf accuracy    <       0.00000381 Ry

     total magnetization       =     0.00 Bohr mag/cell
     absolute magnetization    =     0.00 Bohr mag/cell

     iteration #  2     ecut=    65.00 Ry     beta= 0.30
     Davidson diagonalization with overlap

---- Real-time Memory Report at c_bands before calling an iterative solver
          2764 MiB given to the printing process from OS
             0 MiB allocation reported by mallinfo(arena+hblkhd)
         14171 MiB available memory on the node where the printing process lives
------------------
     ethr =  9.28E-10,  avg # of iterations =  3.0

     negative rho (up, down):  1.433E-03 1.433E-03

     total cpu time spent up to now is    13125.6 secs

     total energy              =   -2979.42710401 Ry
     estimated scf accuracy    <       0.00000558 Ry

     total magnetization       =     0.00 Bohr mag/cell
     absolute magnetization    =     0.00 Bohr mag/cell

     iteration #  3     ecut=    65.00 Ry     beta= 0.30
     Davidson diagonalization with overlap

---- Real-time Memory Report at c_bands before calling an iterative solver
          2764 MiB given to the printing process from OS
             0 MiB allocation reported by mallinfo(arena+hblkhd)
         14116 MiB available memory on the node where the printing process lives
------------------
     ethr =  9.28E-10,  avg # of iterations =  2.4

     negative rho (up, down):  1.433E-03 1.433E-03

     total cpu time spent up to now is    13305.6 secs

     total energy              =   -2979.42710453 Ry
     estimated scf accuracy    <       0.00000093 Ry

     total magnetization       =     0.00 Bohr mag/cell
     absolute magnetization    =     0.00 Bohr mag/cell

     iteration #  4     ecut=    65.00 Ry     beta= 0.30
     Davidson diagonalization with overlap

---- Real-time Memory Report at c_bands before calling an iterative solver
          2764 MiB given to the printing process from OS
             0 MiB allocation reported by mallinfo(arena+hblkhd)
         14104 MiB available memory on the node where the printing process lives
------------------
     ethr =  2.28E-10,  avg # of iterations =  2.0

     negative rho (up, down):  1.433E-03 1.433E-03

     total cpu time spent up to now is    13486.0 secs

     total energy              =   -2979.42710455 Ry
     estimated scf accuracy    <       0.00000041 Ry

     total magnetization       =     0.00 Bohr mag/cell
     absolute magnetization    =     0.00 Bohr mag/cell

     iteration #  5     ecut=    65.00 Ry     beta= 0.30
     Davidson diagonalization with overlap

---- Real-time Memory Report at c_bands before calling an iterative solver
          2764 MiB given to the printing process from OS
             0 MiB allocation reported by mallinfo(arena+hblkhd)
         13708 MiB available memory on the node where the printing process lives
------------------
     ethr =  9.94E-11,  avg # of iterations =  2.1

     negative rho (up, down):  1.433E-03 1.433E-03

     total cpu time spent up to now is    13663.7 secs

     total energy              =   -2979.42710459 Ry
     estimated scf accuracy    <       0.00000015 Ry

     total magnetization       =    -0.00 Bohr mag/cell
     absolute magnetization    =     0.00 Bohr mag/cell

     iteration #  6     ecut=    65.00 Ry     beta= 0.30
     Davidson diagonalization with overlap

---- Real-time Memory Report at c_bands before calling an iterative solver
          2764 MiB given to the printing process from OS
             0 MiB allocation reported by mallinfo(arena+hblkhd)
         13933 MiB available memory on the node where the printing process lives
------------------
     ethr =  3.74E-11,  avg # of iterations =  2.0

     negative rho (up, down):  1.433E-03 1.433E-03

     total cpu time spent up to now is    13840.4 secs

     total energy              =   -2979.42710460 Ry
     estimated scf accuracy    <       0.00000001 Ry

     total magnetization       =    -0.00 Bohr mag/cell
     absolute magnetization    =     0.00 Bohr mag/cell

     iteration #  7     ecut=    65.00 Ry     beta= 0.30
     Davidson diagonalization with overlap

---- Real-time Memory Report at c_bands before calling an iterative solver
          2764 MiB given to the printing process from OS
             0 MiB allocation reported by mallinfo(arena+hblkhd)
         13796 MiB available memory on the node where the printing process lives
------------------
     ethr =  3.57E-12,  avg # of iterations =  3.2

     negative rho (up, down):  1.433E-03 1.433E-03

     total cpu time spent up to now is    14065.4 secs

     total energy              =   -2979.42710461 Ry
     estimated scf accuracy    <          7.8E-09 Ry

     total magnetization       =    -0.00 Bohr mag/cell
     absolute magnetization    =     0.00 Bohr mag/cell

     iteration #  8     ecut=    65.00 Ry     beta= 0.30
     Davidson diagonalization with overlap

---- Real-time Memory Report at c_bands before calling an iterative solver
          2764 MiB given to the printing process from OS
             0 MiB allocation reported by mallinfo(arena+hblkhd)
         13731 MiB available memory on the node where the printing process lives
------------------
     ethr =  1.90E-12,  avg # of iterations =  2.0

     negative rho (up, down):  1.433E-03 1.433E-03

     total cpu time spent up to now is    14256.9 secs

     total energy              =   -2979.42710461 Ry
     estimated scf accuracy    <          4.5E-09 Ry

     total magnetization       =    -0.00 Bohr mag/cell
     absolute magnetization    =     0.00 Bohr mag/cell

     iteration #  9     ecut=    65.00 Ry     beta= 0.30
     Davidson diagonalization with overlap

---- Real-time Memory Report at c_bands before calling an iterative solver
          2764 MiB given to the printing process from OS
             0 MiB allocation reported by mallinfo(arena+hblkhd)
         13455 MiB available memory on the node where the printing process lives
------------------
     ethr =  1.11E-12,  avg # of iterations =  1.3

     negative rho (up, down):  1.433E-03 1.433E-03

     total cpu time spent up to now is    14430.6 secs

     total energy              =   -2979.42710461 Ry
     estimated scf accuracy    <          8.5E-10 Ry

     total magnetization       =    -0.00 Bohr mag/cell
     absolute magnetization    =     0.00 Bohr mag/cell

     iteration # 10     ecut=    65.00 Ry     beta= 0.30
     Davidson diagonalization with overlap

---- Real-time Memory Report at c_bands before calling an iterative solver
          2764 MiB given to the printing process from OS
             0 MiB allocation reported by mallinfo(arena+hblkhd)
         13738 MiB available memory on the node where the printing process lives
------------------
     ethr =  2.06E-13,  avg # of iterations =  3.0

     negative rho (up, down):  1.433E-03 1.433E-03

     total cpu time spent up to now is    14640.2 secs

     total energy              =   -2979.42710461 Ry
     estimated scf accuracy    <          4.0E-10 Ry

     total magnetization       =    -0.00 Bohr mag/cell
     absolute magnetization    =     0.00 Bohr mag/cell

     iteration # 11     ecut=    65.00 Ry     beta= 0.30
     Davidson diagonalization with overlap

---- Real-time Memory Report at c_bands before calling an iterative solver
          2764 MiB given to the printing process from OS
             0 MiB allocation reported by mallinfo(arena+hblkhd)
         13313 MiB available memory on the node where the printing process lives
------------------
     ethr =  1.00E-13,  avg # of iterations =  2.1

     negative rho (up, down):  1.433E-03 1.433E-03

     Magnetic moment per site  (integrated on atomic sphere of radius R)
     atom   1 (R=0.077)  charge= 10.6266  magn= -0.0000
     atom   2 (R=0.077)  charge= 10.6266  magn= -0.0000
     atom   3 (R=0.077)  charge= 10.6266  magn=  0.0000
     atom   4 (R=0.077)  charge= 10.6266  magn=  0.0000
     atom   5 (R=0.077)  charge= 10.6292  magn= -0.0000
     atom   6 (R=0.077)  charge= 10.6196  magn= -0.0000
     atom   7 (R=0.077)  charge= 10.6292  magn= -0.0000
     atom   8 (R=0.077)  charge= 10.6266  magn=  0.0000
     atom   9 (R=0.077)  charge= 10.6266  magn= -0.0000
     atom  10 (R=0.077)  charge= 10.6196  magn= -0.0000
     atom  11 (R=0.077)  charge= 10.6196  magn= -0.0000
     atom  12 (R=0.077)  charge= 10.6266  magn= -0.0000
     atom  13 (R=0.077)  charge= 10.6290  magn=  0.0000
     atom  14 (R=0.077)  charge= 10.6266  magn= -0.0000
     atom  15 (R=0.077)  charge= 10.6292  magn= -0.0000
     atom  16 (R=0.077)  charge= 10.6266  magn= -0.0000
     atom  17 (R=0.077)  charge=  4.0459  magn= -0.0000
     atom  18 (R=0.077)  charge=  4.0438  magn=  0.0000
     atom  19 (R=0.077)  charge=  4.0445  magn=  0.0000
     atom  20 (R=0.077)  charge=  4.0438  magn=  0.0000
     atom  21 (R=0.077)  charge=  4.0468  magn=  0.0000
     atom  22 (R=0.077)  charge=  4.0468  magn=  0.0000
     atom  23 (R=0.077)  charge=  4.0445  magn=  0.0000
     atom  24 (R=0.077)  charge=  4.0445  magn=  0.0000
     atom  25 (R=0.077)  charge=  4.0468  magn=  0.0000
     atom  26 (R=0.077)  charge=  4.0468  magn=  0.0000
     atom  27 (R=0.077)  charge=  4.0438  magn=  0.0000
     atom  28 (R=0.077)  charge=  4.0459  magn= -0.0000
     atom  29 (R=0.077)  charge=  4.0468  magn=  0.0000
     atom  30 (R=0.077)  charge=  4.0468  magn=  0.0000
     atom  31 (R=0.077)  charge=  4.0459  magn= -0.0000
     atom  32 (R=0.077)  charge=  4.0494  magn= -0.0000
     atom  33 (R=0.077)  charge=  4.0465  magn=  0.0000
     atom  34 (R=0.077)  charge=  4.0464  magn=  0.0000
     atom  35 (R=0.077)  charge=  4.0465  magn=  0.0000
     atom  36 (R=0.077)  charge=  4.0438  magn=  0.0000
     atom  37 (R=0.077)  charge=  4.0438  magn=  0.0000
     atom  38 (R=0.077)  charge=  4.0464  magn=  0.0000
     atom  39 (R=0.077)  charge=  4.0464  magn=  0.0000
     atom  40 (R=0.077)  charge=  4.0438  magn=  0.0000
     atom  41 (R=0.077)  charge=  4.0722  magn=  0.0000
     atom  42 (R=0.077)  charge=  4.0438  magn=  0.0000
     atom  43 (R=0.077)  charge=  4.0465  magn=  0.0000
     atom  44 (R=0.077)  charge=  4.0494  magn= -0.0000
     atom  45 (R=0.077)  charge=  4.0438  magn=  0.0000
     atom  46 (R=0.077)  charge=  4.0438  magn=  0.0000
     atom  47 (R=0.077)  charge=  4.0494  magn= -0.0000

     total cpu time spent up to now is    14817.3 secs

     End of self-consistent calculation

 ------ SPIN UP ------------


          k = 0.0000 0.0000 0.0000 (126355 PWs)   bands (ev):

   -60.3632 -60.3557 -60.3557 -60.3446 -60.3378 -60.3377 -60.3324 -60.3096
   -60.3095 -60.3077 -60.3000 -60.2999 -60.2965 -60.2917 -60.2757 -60.2756
   -34.6615 -34.6615 -34.6169 -34.5968 -34.5894 -34.5894 -34.5647 -34.5647
   -34.5255 -34.4862 -34.4752 -34.4744 -34.4743 -34.4724 -34.4724 -34.4520
   -34.4520 -34.4505 -34.4482 -34.4390 -34.4351 -34.4322 -34.4321 -34.4292
   -34.4292 -34.4050 -34.4050 -34.4007 -34.4006 -34.3972 -34.3864 -34.3863
   -34.3856 -34.3853 -34.3777 -34.3772 -34.3671 -34.3671 -34.3567 -34.3566
   -34.3374 -34.3374 -34.3345 -34.3059 -34.2933 -34.2933 -34.2150 -34.2148
   -13.4635 -12.7109 -12.7109 -12.6852 -12.6725 -12.6724 -12.5516 -12.1695
   -11.8952 -11.8952 -11.8468 -11.8455 -11.8455 -11.8116 -11.7198 -11.7197
   -11.7099 -11.7099 -11.6944 -11.6754 -11.6754 -11.6677 -11.5571 -11.4802
   -11.4801 -11.4568 -11.4568 -11.4391 -11.4390 -11.4344 -11.4274  -5.2008
    -5.0979  -5.0979  -4.9846  -4.5269  -4.5254  -4.5254  -4.4949  -4.4745
    -4.4745  -4.4258  -4.4104  -4.4103  -4.3876  -4.3876  -4.3666  -4.3118
    -4.3118  -4.2853  -4.2641  -4.2349  -4.2349  -4.1431  -3.9417  -3.9417
    -3.4821  -3.4821  -3.4374  -3.3180  -3.2616  -3.2495  -3.2495  -3.1802
    -3.1802  -3.0891  -3.0513  -3.0406  -3.0406  -3.0319  -3.0319  -2.9950
    -2.9728  -2.9728  -2.8490  -2.8490  -2.7262  -2.6703  -2.6702  -2.6408
    -2.6133  -2.6133  -2.5889  -2.4497  -2.4430  -2.4430  -2.3214  -2.3214
    -2.2972  -2.2445  -2.1597  -2.1597  -2.0302  -2.0302  -1.9352  -1.9229
    -1.9228  -1.9039  -1.6022  -1.6022  -1.2950  -1.2908  -1.2908  -1.2878
    -1.2730  -1.2730  -1.1838  -1.1574  -1.1063  -1.1063  -1.0601  -1.0601
    -1.0354  -1.0012  -1.0012  -0.9167  -0.8485  -0.8485  -0.7945  -0.7398
    -0.7398  -0.5403  -0.5403  -0.4563  -0.2458  -0.1681  -0.1681  -0.1360
    -0.1238  -0.1198  -0.1197  -0.0465  -0.0465  -0.0031  -0.0031   0.0260
     0.0364   0.0776   0.0776   0.4346   0.6834   1.7423   1.7424   2.6689
     2.6837   2.6923   2.6924   2.7272   2.7272   2.7369   2.7467   2.7467
     2.7720   2.7720   2.8081   2.8148   2.8148   2.8648   2.9113   2.9218
     2.9218   2.9768   3.1579   3.1579   3.2741   3.2939   3.2939   3.3258
     3.3258   3.3440   3.3546   3.3547   3.3852   3.4178   3.4178   3.4552
     3.4552   3.4629   3.5091   3.5092   3.5967   3.6599

     occupation numbers 
     1.0000   1.0000   1.0000   1.0000   1.0000   1.0000   1.0000   1.0000
     1.0000   1.0000   1.0000   1.0000   1.0000   1.0000   1.0000   1.0000
     1.0000   1.0000   1.0000   1.0000   1.0000   1.0000   1.0000   1.0000
     1.0000   1.0000   1.0000   1.0000   1.0000   1.0000   1.0000   1.0000
     1.0000   1.0000   1.0000   1.0000   1.0000   1.0000   1.0000   1.0000
     1.0000   1.0000   1.0000   1.0000   1.0000   1.0000   1.0000   1.0000
     1.0000   1.0000   1.0000   1.0000   1.0000   1.0000   1.0000   1.0000
     1.0000   1.0000   1.0000   1.0000   1.0000   1.0000   1.0000   1.0000
     1.0000   1.0000   1.0000   1.0000   1.0000   1.0000   1.0000   1.0000
     1.0000   1.0000   1.0000   1.0000   1.0000   1.0000   1.0000   1.0000
     1.0000   1.0000   1.0000   1.0000   1.0000   1.0000   1.0000   1.0000
     1.0000   1.0000   1.0000   1.0000   1.0000   1.0000   1.0000   1.0000
     1.0000   1.0000   1.0000   1.0000   1.0000   1.0000   1.0000   1.0000
     1.0000   1.0000   1.0000   1.0000   1.0000   1.0000   1.0000   1.0000
     1.0000   1.0000   1.0000   1.0000   1.0000   1.0000   1.0000   1.0000
     1.0000   1.0000   1.0000   1.0000   1.0000   1.0000   1.0000   1.0000
     1.0000   1.0000   1.0000   1.0000   1.0000   1.0000   1.0000   1.0000
     1.0000   1.0000   1.0000   1.0000   1.0000   1.0000   1.0000   1.0000
     1.0000   1.0000   1.0000   1.0000   1.0000   1.0000   1.0000   1.0000
     1.0000   1.0000   1.0000   1.0000   1.0000   1.0000   1.0000   1.0000
     1.0000   1.0000   1.0000   1.0000   1.0000   1.0000   1.0000   1.0000
     1.0000   1.0000   1.0000   1.0000   1.0000   1.0000   1.0000   1.0000
     1.0000   1.0000   1.0000   1.0000   1.0000   1.0000   1.0000   1.0000
     1.0000   1.0000   1.0000   1.0000   1.0000   1.0000   1.0000   1.0000
     1.0000   1.0000   1.0000   1.0000   1.0000   1.0000   1.0000   1.0000
     1.0000   1.0000   1.0000   1.0000   0.9992   0.0002   0.0002   0.0000
     0.0000   0.0000   0.0000   0.0000   0.0000   0.0000   0.0000   0.0000
     0.0000   0.0000   0.0000   0.0000   0.0000   0.0000   0.0000   0.0000
     0.0000   0.0000   0.0000   0.0000   0.0000   0.0000   0.0000   0.0000
     0.0000   0.0000   0.0000   0.0000   0.0000   0.0000   0.0000   0.0000
     0.0000   0.0000   0.0000   0.0000   0.0000   0.0000

          k = 0.0000 0.1925 0.0000 (126305 PWs)   bands (ev):

   -60.3629 -60.3561 -60.3557 -60.3445 -60.3380 -60.3377 -60.3323 -60.3095
   -60.3095 -60.3077 -60.3002 -60.3001 -60.2964 -60.2917 -60.2757 -60.2756
   -34.6587 -34.6567 -34.6136 -34.5994 -34.5914 -34.5887 -34.5693 -34.5616
   -34.5322 -34.5083 -34.4915 -34.4831 -34.4747 -34.4679 -34.4560 -34.4537
   -34.4523 -34.4442 -34.4438 -34.4396 -34.4349 -34.4289 -34.4280 -34.4240
   -34.4209 -34.4053 -34.4053 -34.4032 -34.3970 -34.3950 -34.3877 -34.3873
   -34.3852 -34.3780 -34.3780 -34.3731 -34.3680 -34.3671 -34.3567 -34.3565
   -34.3416 -34.3400 -34.3342 -34.3061 -34.2969 -34.2935 -34.2171 -34.2152
   -13.4388 -12.8938 -12.7916 -12.7477 -12.5587 -12.5121 -12.4251 -12.1597
   -11.9504 -11.9178 -11.8862 -11.8623 -11.8453 -11.8111 -11.7856 -11.7622
   -11.7167 -11.7088 -11.6814 -11.6774 -11.6251 -11.5801 -11.5460 -11.5181
   -11.4995 -11.4823 -11.4674 -11.4453 -11.4372 -11.4031 -11.3838  -5.1636
    -5.0644  -5.0638  -4.9551  -4.5843  -4.5504  -4.5489  -4.5342  -4.5193
    -4.4892  -4.4691  -4.4406  -4.4283  -4.4218  -4.4064  -4.3882  -4.3880
    -4.3002  -4.2678  -4.2507  -4.1638  -4.0946  -4.0860  -3.9105  -3.8888
    -3.4689  -3.4685  -3.4185  -3.3333  -3.3033  -3.2763  -3.2742  -3.1923
    -3.1628  -3.1596  -3.1303  -3.1077  -3.0987  -3.0841  -3.0766  -3.0087
    -3.0034  -2.8987  -2.7593  -2.7524  -2.6927  -2.6763  -2.6441  -2.6417
    -2.5935  -2.5878  -2.5608  -2.5558  -2.5414  -2.3937  -2.2975  -2.2919
    -2.1615  -2.1505  -2.1123  -2.0994  -2.0634  -2.0153  -1.9989  -1.9725
    -1.9262  -1.8009  -1.6353  -1.5982  -1.4356  -1.4127  -1.3177  -1.2943
    -1.2472  -1.2418  -1.2230  -1.2087  -1.1497  -1.1450  -1.0683  -1.0625
    -1.0195  -0.9638  -0.9116  -0.9040  -0.8226  -0.7999  -0.7502  -0.6733
    -0.6624  -0.6118  -0.6031  -0.5136  -0.3298  -0.2624  -0.2276  -0.1569
    -0.1313  -0.1274  -0.0507  -0.0378  -0.0301   0.0141   0.0144   0.0361
     0.1124   0.1859   0.1908   0.4394   0.6669   1.7424   1.7475   2.5692
     2.5841   2.6821   2.6895   2.7114   2.7182   2.7225   2.7317   2.7581
     2.7629   2.7864   2.7939   2.8266   2.8300   2.8661   2.8927   2.9640
     2.9713   3.0054   3.1113   3.1170   3.1878   3.2228   3.2408   3.2533
     3.2832   3.2894   3.3205   3.3422   3.3687   3.3807   3.4205   3.4375
     3.5150   3.5337   3.6079   3.6273   3.6436   3.6446

     occupation numbers 
     1.0000   1.0000   1.0000   1.0000   1.0000   1.0000   1.0000   1.0000
     1.0000   1.0000   1.0000   1.0000   1.0000   1.0000   1.0000   1.0000
     1.0000   1.0000   1.0000   1.0000   1.0000   1.0000   1.0000   1.0000
     1.0000   1.0000   1.0000   1.0000   1.0000   1.0000   1.0000   1.0000
     1.0000   1.0000   1.0000   1.0000   1.0000   1.0000   1.0000   1.0000
     1.0000   1.0000   1.0000   1.0000   1.0000   1.0000   1.0000   1.0000
     1.0000   1.0000   1.0000   1.0000   1.0000   1.0000   1.0000   1.0000
     1.0000   1.0000   1.0000   1.0000   1.0000   1.0000   1.0000   1.0000
     1.0000   1.0000   1.0000   1.0000   1.0000   1.0000   1.0000   1.0000
     1.0000   1.0000   1.0000   1.0000   1.0000   1.0000   1.0000   1.0000
     1.0000   1.0000   1.0000   1.0000   1.0000   1.0000   1.0000   1.0000
     1.0000   1.0000   1.0000   1.0000   1.0000   1.0000   1.0000   1.0000
     1.0000   1.0000   1.0000   1.0000   1.0000   1.0000   1.0000   1.0000
     1.0000   1.0000   1.0000   1.0000   1.0000   1.0000   1.0000   1.0000
     1.0000   1.0000   1.0000   1.0000   1.0000   1.0000   1.0000   1.0000
     1.0000   1.0000   1.0000   1.0000   1.0000   1.0000   1.0000   1.0000
     1.0000   1.0000   1.0000   1.0000   1.0000   1.0000   1.0000   1.0000
     1.0000   1.0000   1.0000   1.0000   1.0000   1.0000   1.0000   1.0000
     1.0000   1.0000   1.0000   1.0000   1.0000   1.0000   1.0000   1.0000
     1.0000   1.0000   1.0000   1.0000   1.0000   1.0000   1.0000   1.0000
     1.0000   1.0000   1.0000   1.0000   1.0000   1.0000   1.0000   1.0000
     1.0000   1.0000   1.0000   1.0000   1.0000   1.0000   1.0000   1.0000
     1.0000   1.0000   1.0000   1.0000   1.0000   1.0000   1.0000   1.0000
     1.0000   1.0000   1.0000   1.0000   1.0000   1.0000   1.0000   1.0000
     1.0000   1.0000   1.0000   1.0000   1.0000   1.0000   1.0000   1.0000
     1.0000   1.0000   1.0000   1.0000   0.9994   0.0002   0.0002   0.0000
     0.0000   0.0000   0.0000   0.0000   0.0000   0.0000   0.0000   0.0000
     0.0000   0.0000   0.0000   0.0000   0.0000   0.0000   0.0000   0.0000
     0.0000   0.0000   0.0000   0.0000   0.0000   0.0000   0.0000   0.0000
     0.0000   0.0000   0.0000   0.0000   0.0000   0.0000   0.0000   0.0000
     0.0000   0.0000   0.0000   0.0000   0.0000   0.0000

          k = 0.0000 0.3849 0.0000 (126328 PWs)   bands (ev):

   -60.3624 -60.3568 -60.3557 -60.3442 -60.3384 -60.3377 -60.3320 -60.3094
   -60.3093 -60.3076 -60.3005 -60.3003 -60.2961 -60.2916 -60.2757 -60.2756
   -34.6515 -34.6432 -34.6101 -34.6061 -34.5950 -34.5906 -34.5714 -34.5538
   -34.5487 -34.5335 -34.5099 -34.4847 -34.4758 -34.4729 -34.4586 -34.4561
   -34.4527 -34.4419 -34.4334 -34.4311 -34.4307 -34.4274 -34.4258 -34.4122
   -34.4081 -34.4057 -34.4040 -34.3971 -34.3919 -34.3909 -34.3888 -34.3853
   -34.3830 -34.3781 -34.3765 -34.3765 -34.3663 -34.3572 -34.3565 -34.3525
   -34.3499 -34.3453 -34.3358 -34.3073 -34.3069 -34.2934 -34.2219 -34.2158
   -13.3662 -13.0840 -12.8517 -12.7989 -12.4016 -12.3667 -12.2139 -12.1314
   -12.0437 -12.0370 -11.9910 -11.9351 -11.8962 -11.8249 -11.7522 -11.7374
   -11.7056 -11.6829 -11.6813 -11.6688 -11.6305 -11.5936 -11.5609 -11.5214
   -11.5012 -11.4760 -11.4645 -11.4457 -11.4376 -11.3731 -11.3476  -5.0584
    -4.9706  -4.9673  -4.8702  -4.7243  -4.6764  -4.6595  -4.6162  -4.6070
    -4.5744  -4.5095  -4.4996  -4.4385  -4.4233  -4.4070  -4.3628  -4.3543
    -4.3070  -4.2479  -4.2268  -4.1702  -4.0306  -3.9355  -3.7420  -3.7118
    -3.5321  -3.4305  -3.4279  -3.3749  -3.3304  -3.3089  -3.3069  -3.2876
    -3.2624  -3.2451  -3.2384  -3.2011  -3.1548  -3.1517  -3.1251  -3.0070
    -2.9342  -2.7975  -2.6953  -2.6825  -2.6535  -2.6369  -2.6272  -2.6265
    -2.5980  -2.5612  -2.5425  -2.4819  -2.4397  -2.4108  -2.3807  -2.3249
    -2.3079  -2.2391  -2.1083  -2.0829  -2.0143  -1.9365  -1.8527  -1.7594
    -1.7485  -1.6841  -1.6795  -1.5776  -1.5746  -1.4684  -1.3839  -1.3649
    -1.3192  -1.3110  -1.2283  -1.2215  -1.1722  -1.1649  -1.1363  -1.1243
    -1.0139  -1.0049  -0.9507  -0.9078  -0.8177  -0.7879  -0.7483  -0.6810
    -0.6179  -0.6058  -0.5014  -0.4646  -0.3846  -0.3115  -0.2701  -0.2346
    -0.2004  -0.1950  -0.0103   0.0061   0.0179   0.0391   0.0517   0.0662
     0.2931   0.3214   0.3294   0.4535   0.6180   1.7423   1.7610   2.4266
     2.4573   2.6066   2.6342   2.6561   2.6881   2.6957   2.7200   2.7403
     2.7580   2.7739   2.8039   2.8437   2.8728   2.8996   2.9318   2.9955
     3.0086   3.0443   3.0647   3.0949   3.1034   3.1216   3.1475   3.1757
     3.2021   3.2526   3.2726   3.3019   3.3425   3.3515   3.3709   3.4667
     3.5107   3.5347   3.5804   3.6560   3.7395   3.7433

     occupation numbers 
     1.0000   1.0000   1.0000   1.0000   1.0000   1.0000   1.0000   1.0000
     1.0000   1.0000   1.0000   1.0000   1.0000   1.0000   1.0000   1.0000
     1.0000   1.0000   1.0000   1.0000   1.0000   1.0000   1.0000   1.0000
     1.0000   1.0000   1.0000   1.0000   1.0000   1.0000   1.0000   1.0000
     1.0000   1.0000   1.0000   1.0000   1.0000   1.0000   1.0000   1.0000
     1.0000   1.0000   1.0000   1.0000   1.0000   1.0000   1.0000   1.0000
     1.0000   1.0000   1.0000   1.0000   1.0000   1.0000   1.0000   1.0000
     1.0000   1.0000   1.0000   1.0000   1.0000   1.0000   1.0000   1.0000
     1.0000   1.0000   1.0000   1.0000   1.0000   1.0000   1.0000   1.0000
     1.0000   1.0000   1.0000   1.0000   1.0000   1.0000   1.0000   1.0000
     1.0000   1.0000   1.0000   1.0000   1.0000   1.0000   1.0000   1.0000
     1.0000   1.0000   1.0000   1.0000   1.0000   1.0000   1.0000   1.0000
     1.0000   1.0000   1.0000   1.0000   1.0000   1.0000   1.0000   1.0000
     1.0000   1.0000   1.0000   1.0000   1.0000   1.0000   1.0000   1.0000
     1.0000   1.0000   1.0000   1.0000   1.0000   1.0000   1.0000   1.0000
     1.0000   1.0000   1.0000   1.0000   1.0000   1.0000   1.0000   1.0000
     1.0000   1.0000   1.0000   1.0000   1.0000   1.0000   1.0000   1.0000
     1.0000   1.0000   1.0000   1.0000   1.0000   1.0000   1.0000   1.0000
     1.0000   1.0000   1.0000   1.0000   1.0000   1.0000   1.0000   1.0000
     1.0000   1.0000   1.0000   1.0000   1.0000   1.0000   1.0000   1.0000
     1.0000   1.0000   1.0000   1.0000   1.0000   1.0000   1.0000   1.0000
     1.0000   1.0000   1.0000   1.0000   1.0000   1.0000   1.0000   1.0000
     1.0000   1.0000   1.0000   1.0000   1.0000   1.0000   1.0000   1.0000
     1.0000   1.0000   1.0000   1.0000   1.0000   1.0000   1.0000   1.0000
     1.0000   1.0000   1.0000   1.0000   1.0000   1.0000   1.0000   1.0000
     1.0000   1.0000   1.0000   1.0000   0.9997   0.0002   0.0002   0.0000
     0.0000   0.0000   0.0000   0.0000   0.0000   0.0000   0.0000   0.0000
     0.0000   0.0000   0.0000   0.0000   0.0000   0.0000   0.0000   0.0000
     0.0000   0.0000   0.0000   0.0000   0.0000   0.0000   0.0000   0.0000
     0.0000   0.0000   0.0000   0.0000   0.0000   0.0000   0.0000   0.0000
     0.0000   0.0000   0.0000   0.0000   0.0000   0.0000

          k = 0.0000-0.5774 0.0000 (126288 PWs)   bands (ev):

   -60.3621 -60.3573 -60.3558 -60.3441 -60.3385 -60.3376 -60.3318 -60.3094
   -60.3093 -60.3076 -60.3007 -60.3004 -60.2960 -60.2916 -60.2757 -60.2756
   -34.6460 -34.6291 -34.6175 -34.6142 -34.5935 -34.5896 -34.5691 -34.5578
   -34.5479 -34.5457 -34.5196 -34.4809 -34.4799 -34.4718 -34.4655 -34.4595
   -34.4529 -34.4427 -34.4324 -34.4272 -34.4251 -34.4217 -34.4213 -34.4076
   -34.4055 -34.4052 -34.3986 -34.3966 -34.3964 -34.3904 -34.3896 -34.3890
   -34.3815 -34.3779 -34.3687 -34.3677 -34.3672 -34.3584 -34.3570 -34.3553
   -34.3551 -34.3377 -34.3369 -34.3160 -34.3081 -34.2932 -34.2245 -34.2161
   -13.2682 -13.2222 -12.8721 -12.8172 -12.2459 -12.2294 -12.2226 -12.1580
   -12.0966 -12.0765 -12.0178 -11.9525 -11.9434 -11.9007 -11.7090 -11.7052
   -11.6994 -11.6749 -11.6661 -11.6632 -11.6581 -11.6017 -11.5960 -11.5512
   -11.4802 -11.4616 -11.4571 -11.4426 -11.4377 -11.3620 -11.3347  -4.9255
    -4.8774  -4.8664  -4.8474  -4.7889  -4.7848  -4.7599  -4.7101  -4.6588
    -4.6575  -4.4953  -4.4935  -4.4509  -4.4371  -4.4135  -4.3416  -4.3286
    -4.2980  -4.2449  -4.2296  -4.1450  -4.0340  -3.8103  -3.7348  -3.5666
    -3.5072  -3.4367  -3.4363  -3.3824  -3.3715  -3.3632  -3.3336  -3.3315
    -3.3056  -3.2946  -3.2809  -3.2399  -3.1971  -3.1736  -3.1293  -2.9904
    -2.9557  -2.6688  -2.6599  -2.6329  -2.6304  -2.6008  -2.5879  -2.5717
    -2.5641  -2.5578  -2.5508  -2.5257  -2.5190  -2.4296  -2.4284  -2.3919
    -2.3580  -2.2305  -2.1076  -2.0370  -2.0211  -1.9291  -1.8544  -1.8285
    -1.6925  -1.5086  -1.4958  -1.4372  -1.4058  -1.4003  -1.3967  -1.3738
    -1.3599  -1.3525  -1.3286  -1.3148  -1.2904  -1.2149  -1.1908  -1.1727
    -1.1654  -1.1635  -0.9594  -0.9303  -0.8077  -0.7239  -0.7026  -0.6549
    -0.6354  -0.5979  -0.4400  -0.4140  -0.3564  -0.3165  -0.2960  -0.2700
    -0.2513  -0.2227   0.0021   0.0323   0.0323   0.0492   0.0693   0.0793
     0.3712   0.3802   0.4030   0.4684   0.5702   1.7417   1.7697   2.3626
     2.4024   2.5687   2.5978   2.6095   2.6590   2.6839   2.7168   2.7412
     2.7605   2.7702   2.8058   2.8366   2.8853   2.9950   3.0038   3.0195
     3.0254   3.0417   3.0459   3.0575   3.0620   3.0742   3.0770   3.1306
     3.1449   3.2032   3.2990   3.3030   3.3256   3.3273   3.3451   3.4976
     3.5188   3.5309   3.6204   3.6616   3.6818   3.7504

     occupation numbers 
     1.0000   1.0000   1.0000   1.0000   1.0000   1.0000   1.0000   1.0000
     1.0000   1.0000   1.0000   1.0000   1.0000   1.0000   1.0000   1.0000
     1.0000   1.0000   1.0000   1.0000   1.0000   1.0000   1.0000   1.0000
     1.0000   1.0000   1.0000   1.0000   1.0000   1.0000   1.0000   1.0000
     1.0000   1.0000   1.0000   1.0000   1.0000   1.0000   1.0000   1.0000
     1.0000   1.0000   1.0000   1.0000   1.0000   1.0000   1.0000   1.0000
     1.0000   1.0000   1.0000   1.0000   1.0000   1.0000   1.0000   1.0000
     1.0000   1.0000   1.0000   1.0000   1.0000   1.0000   1.0000   1.0000
     1.0000   1.0000   1.0000   1.0000   1.0000   1.0000   1.0000   1.0000
     1.0000   1.0000   1.0000   1.0000   1.0000   1.0000   1.0000   1.0000
     1.0000   1.0000   1.0000   1.0000   1.0000   1.0000   1.0000   1.0000
     1.0000   1.0000   1.0000   1.0000   1.0000   1.0000   1.0000   1.0000
     1.0000   1.0000   1.0000   1.0000   1.0000   1.0000   1.0000   1.0000
     1.0000   1.0000   1.0000   1.0000   1.0000   1.0000   1.0000   1.0000
     1.0000   1.0000   1.0000   1.0000   1.0000   1.0000   1.0000   1.0000
     1.0000   1.0000   1.0000   1.0000   1.0000   1.0000   1.0000   1.0000
     1.0000   1.0000   1.0000   1.0000   1.0000   1.0000   1.0000   1.0000
     1.0000   1.0000   1.0000   1.0000   1.0000   1.0000   1.0000   1.0000
     1.0000   1.0000   1.0000   1.0000   1.0000   1.0000   1.0000   1.0000
     1.0000   1.0000   1.0000   1.0000   1.0000   1.0000   1.0000   1.0000
     1.0000   1.0000   1.0000   1.0000   1.0000   1.0000   1.0000   1.0000
     1.0000   1.0000   1.0000   1.0000   1.0000   1.0000   1.0000   1.0000
     1.0000   1.0000   1.0000   1.0000   1.0000   1.0000   1.0000   1.0000
     1.0000   1.0000   1.0000   1.0000   1.0000   1.0000   1.0000   1.0000
     1.0000   1.0000   1.0000   1.0000   1.0000   1.0000   1.0000   1.0000
     1.0000   1.0000   1.0000   1.0000   0.9998   0.0002   0.0001   0.0000
     0.0000   0.0000   0.0000   0.0000   0.0000   0.0000   0.0000   0.0000
     0.0000   0.0000   0.0000   0.0000   0.0000   0.0000   0.0000   0.0000
     0.0000   0.0000   0.0000   0.0000   0.0000   0.0000   0.0000   0.0000
     0.0000   0.0000   0.0000   0.0000   0.0000   0.0000   0.0000   0.0000
     0.0000   0.0000   0.0000   0.0000   0.0000   0.0000

          k = 0.1667 0.2887 0.0000 (126343 PWs)   bands (ev):

   -60.3626 -60.3566 -60.3558 -60.3443 -60.3382 -60.3377 -60.3320 -60.3095
   -60.3094 -60.3077 -60.3004 -60.3003 -60.2962 -60.2916 -60.2757 -60.2756
   -34.6535 -34.6475 -34.6079 -34.6043 -34.5992 -34.5826 -34.5761 -34.5591
   -34.5405 -34.5286 -34.5010 -34.4940 -34.4735 -34.4659 -34.4563 -34.4549
   -34.4530 -34.4423 -34.4385 -34.4339 -34.4301 -34.4279 -34.4261 -34.4245
   -34.4066 -34.4048 -34.4024 -34.3969 -34.3940 -34.3906 -34.3879 -34.3868
   -34.3843 -34.3790 -34.3777 -34.3736 -34.3670 -34.3588 -34.3565 -34.3560
   -34.3470 -34.3441 -34.3356 -34.3076 -34.3026 -34.2939 -34.2205 -34.2157
   -13.3901 -12.9928 -12.9557 -12.6428 -12.5768 -12.3170 -12.3001 -12.1409
   -12.0388 -11.9862 -11.9695 -11.8638 -11.8522 -11.8288 -11.7969 -11.7653
   -11.7476 -11.6998 -11.6909 -11.6254 -11.6004 -11.5876 -11.5360 -11.5300
   -11.5031 -11.4945 -11.4884 -11.4465 -11.4055 -11.3974 -11.3513  -5.0921
    -5.0003  -4.9985  -4.8979  -4.6660  -4.6416  -4.6151  -4.5764  -4.5489
    -4.5416  -4.5216  -4.5079  -4.4887  -4.4477  -4.4414  -4.3863  -4.3605
    -4.2939  -4.2339  -4.2000  -4.0973  -4.0517  -3.9813  -3.8800  -3.7084
    -3.4494  -3.4469  -3.4374  -3.4144  -3.3551  -3.3262  -3.2882  -3.2689
    -3.2321  -3.2248  -3.1870  -3.1741  -3.1336  -3.1158  -3.0529  -2.9770
    -2.9358  -2.8893  -2.8209  -2.7775  -2.6916  -2.6662  -2.6229  -2.5995
    -2.5711  -2.5443  -2.5161  -2.4802  -2.3929  -2.3607  -2.3054  -2.2786
    -2.2579  -2.2343  -2.2132  -2.1444  -2.0544  -1.9574  -1.8708  -1.7773
    -1.7430  -1.7416  -1.6477  -1.6188  -1.5963  -1.4705  -1.3834  -1.3389
    -1.3122  -1.2583  -1.2396  -1.2283  -1.1981  -1.1330  -1.1003  -1.0523
    -0.9973  -0.9644  -0.9521  -0.9187  -0.8269  -0.7972  -0.7370  -0.6817
    -0.6220  -0.5909  -0.5458  -0.5256  -0.3531  -0.3395  -0.2290  -0.1970
    -0.1388  -0.1332  -0.1147  -0.0995  -0.0512   0.0644   0.1223   0.1521
     0.2127   0.2200   0.3426   0.4477   0.6338   1.7381   1.7618   2.4059
     2.5928   2.6062   2.6306   2.6677   2.6820   2.7089   2.7238   2.7440
     2.7675   2.7756   2.8094   2.8313   2.8577   2.8801   2.9245   2.9825
     3.0050   3.0415   3.0700   3.1020   3.1359   3.1530   3.1710   3.1795
     3.2172   3.2333   3.2936   3.3026   3.3037   3.3650   3.3819   3.4628
     3.5318   3.5517   3.6340   3.6841   3.7095   3.7224

     occupation numbers 
     1.0000   1.0000   1.0000   1.0000   1.0000   1.0000   1.0000   1.0000
     1.0000   1.0000   1.0000   1.0000   1.0000   1.0000   1.0000   1.0000
     1.0000   1.0000   1.0000   1.0000   1.0000   1.0000   1.0000   1.0000
     1.0000   1.0000   1.0000   1.0000   1.0000   1.0000   1.0000   1.0000
     1.0000   1.0000   1.0000   1.0000   1.0000   1.0000   1.0000   1.0000
     1.0000   1.0000   1.0000   1.0000   1.0000   1.0000   1.0000   1.0000
     1.0000   1.0000   1.0000   1.0000   1.0000   1.0000   1.0000   1.0000
     1.0000   1.0000   1.0000   1.0000   1.0000   1.0000   1.0000   1.0000
     1.0000   1.0000   1.0000   1.0000   1.0000   1.0000   1.0000   1.0000
     1.0000   1.0000   1.0000   1.0000   1.0000   1.0000   1.0000   1.0000
     1.0000   1.0000   1.0000   1.0000   1.0000   1.0000   1.0000   1.0000
     1.0000   1.0000   1.0000   1.0000   1.0000   1.0000   1.0000   1.0000
     1.0000   1.0000   1.0000   1.0000   1.0000   1.0000   1.0000   1.0000
     1.0000   1.0000   1.0000   1.0000   1.0000   1.0000   1.0000   1.0000
     1.0000   1.0000   1.0000   1.0000   1.0000   1.0000   1.0000   1.0000
     1.0000   1.0000   1.0000   1.0000   1.0000   1.0000   1.0000   1.0000
     1.0000   1.0000   1.0000   1.0000   1.0000   1.0000   1.0000   1.0000
     1.0000   1.0000   1.0000   1.0000   1.0000   1.0000   1.0000   1.0000
     1.0000   1.0000   1.0000   1.0000   1.0000   1.0000   1.0000   1.0000
     1.0000   1.0000   1.0000   1.0000   1.0000   1.0000   1.0000   1.0000
     1.0000   1.0000   1.0000   1.0000   1.0000   1.0000   1.0000   1.0000
     1.0000   1.0000   1.0000   1.0000   1.0000   1.0000   1.0000   1.0000
     1.0000   1.0000   1.0000   1.0000   1.0000   1.0000   1.0000   1.0000
     1.0000   1.0000   1.0000   1.0000   1.0000   1.0000   1.0000   1.0000
     1.0000   1.0000   1.0000   1.0000   1.0000   1.0000   1.0000   1.0000
     1.0000   1.0000   1.0000   1.0000   0.9996   0.0002   0.0002   0.0000
     0.0000   0.0000   0.0000   0.0000   0.0000   0.0000   0.0000   0.0000
     0.0000   0.0000   0.0000   0.0000   0.0000   0.0000   0.0000   0.0000
     0.0000   0.0000   0.0000   0.0000   0.0000   0.0000   0.0000   0.0000
     0.0000   0.0000   0.0000   0.0000   0.0000   0.0000   0.0000   0.0000
     0.0000   0.0000   0.0000   0.0000   0.0000   0.0000

          k = 0.1667 0.4811 0.0000 (126406 PWs)   bands (ev):

   -60.3621 -60.3572 -60.3558 -60.3441 -60.3385 -60.3377 -60.3318 -60.3094
   -60.3092 -60.3076 -60.3007 -60.3005 -60.2960 -60.2916 -60.2758 -60.2756
   -34.6458 -34.6329 -34.6152 -34.6058 -34.6004 -34.5869 -34.5731 -34.5614
   -34.5556 -34.5310 -34.5168 -34.4973 -34.4721 -34.4716 -34.4588 -34.4546
   -34.4489 -34.4423 -34.4413 -34.4326 -34.4275 -34.4247 -34.4206 -34.4080
   -34.4065 -34.4043 -34.4015 -34.3978 -34.3916 -34.3898 -34.3872 -34.3834
   -34.3798 -34.3778 -34.3725 -34.3709 -34.3638 -34.3574 -34.3569 -34.3554
   -34.3536 -34.3418 -34.3370 -34.3158 -34.3068 -34.2941 -34.2239 -34.2165
   -13.2962 -13.1515 -13.0124 -12.6498 -12.4314 -12.2424 -12.1611 -12.1140
   -12.0849 -12.0498 -12.0061 -11.9758 -11.8928 -11.8496 -11.8110 -11.7698
   -11.7512 -11.6864 -11.6422 -11.6231 -11.6083 -11.5815 -11.5679 -11.5468
   -11.5063 -11.5005 -11.4740 -11.4217 -11.4083 -11.3769 -11.3299  -4.9618
    -4.8878  -4.8803  -4.7949  -4.7834  -4.7545  -4.7129  -4.6824  -4.6409
    -4.6261  -4.6033  -4.5554  -4.5013  -4.4855  -4.4130  -4.3637  -4.3492
    -4.2724  -4.2537  -4.1024  -4.0540  -3.9673  -3.8754  -3.7799  -3.6584
    -3.5745  -3.4192  -3.4073  -3.3833  -3.3535  -3.3403  -3.3240  -3.3085
    -3.2955  -3.2795  -3.2668  -3.2323  -3.2272  -3.1416  -3.1010  -3.0030
    -2.9151  -2.8190  -2.7431  -2.6953  -2.6588  -2.6274  -2.5978  -2.5768
    -2.5476  -2.5132  -2.4984  -2.4793  -2.4511  -2.4262  -2.3948  -2.3786
    -2.2998  -2.2564  -2.1585  -2.0327  -1.9994  -1.8645  -1.8145  -1.7707
    -1.6945  -1.6720  -1.6035  -1.4995  -1.4798  -1.4476  -1.3946  -1.3607
    -1.3538  -1.3390  -1.3052  -1.2615  -1.2210  -1.2100  -1.1625  -1.1226
    -1.0870  -1.0307  -0.9938  -0.9683  -0.8913  -0.7973  -0.7614  -0.6907
    -0.5731  -0.5501  -0.4540  -0.4349  -0.3288  -0.3023  -0.2611  -0.2410
    -0.2214  -0.1896  -0.1090  -0.0948  -0.0555   0.1085   0.1475   0.2160
     0.2870   0.3584   0.4440   0.4646   0.5768   1.7317   1.7807   2.2817
     2.5272   2.5363   2.5976   2.6270   2.6669   2.6850   2.7086   2.7227
     2.7625   2.7887   2.7974   2.8298   2.8889   2.9545   2.9837   3.0012
     3.0246   3.0417   3.0592   3.0730   3.0845   3.1050   3.1114   3.1247
     3.1560   3.1675   3.1941   3.2388   3.3030   3.3443   3.4122   3.4487
     3.5314   3.5838   3.6738   3.7151   3.7540   3.7652

     occupation numbers 
     1.0000   1.0000   1.0000   1.0000   1.0000   1.0000   1.0000   1.0000
     1.0000   1.0000   1.0000   1.0000   1.0000   1.0000   1.0000   1.0000
     1.0000   1.0000   1.0000   1.0000   1.0000   1.0000   1.0000   1.0000
     1.0000   1.0000   1.0000   1.0000   1.0000   1.0000   1.0000   1.0000
     1.0000   1.0000   1.0000   1.0000   1.0000   1.0000   1.0000   1.0000
     1.0000   1.0000   1.0000   1.0000   1.0000   1.0000   1.0000   1.0000
     1.0000   1.0000   1.0000   1.0000   1.0000   1.0000   1.0000   1.0000
     1.0000   1.0000   1.0000   1.0000   1.0000   1.0000   1.0000   1.0000
     1.0000   1.0000   1.0000   1.0000   1.0000   1.0000   1.0000   1.0000
     1.0000   1.0000   1.0000   1.0000   1.0000   1.0000   1.0000   1.0000
     1.0000   1.0000   1.0000   1.0000   1.0000   1.0000   1.0000   1.0000
     1.0000   1.0000   1.0000   1.0000   1.0000   1.0000   1.0000   1.0000
     1.0000   1.0000   1.0000   1.0000   1.0000   1.0000   1.0000   1.0000
     1.0000   1.0000   1.0000   1.0000   1.0000   1.0000   1.0000   1.0000
     1.0000   1.0000   1.0000   1.0000   1.0000   1.0000   1.0000   1.0000
     1.0000   1.0000   1.0000   1.0000   1.0000   1.0000   1.0000   1.0000
     1.0000   1.0000   1.0000   1.0000   1.0000   1.0000   1.0000   1.0000
     1.0000   1.0000   1.0000   1.0000   1.0000   1.0000   1.0000   1.0000
     1.0000   1.0000   1.0000   1.0000   1.0000   1.0000   1.0000   1.0000
     1.0000   1.0000   1.0000   1.0000   1.0000   1.0000   1.0000   1.0000
     1.0000   1.0000   1.0000   1.0000   1.0000   1.0000   1.0000   1.0000
     1.0000   1.0000   1.0000   1.0000   1.0000   1.0000   1.0000   1.0000
     1.0000   1.0000   1.0000   1.0000   1.0000   1.0000   1.0000   1.0000
     1.0000   1.0000   1.0000   1.0000   1.0000   1.0000   1.0000   1.0000
     1.0000   1.0000   1.0000   1.0000   1.0000   1.0000   1.0000   1.0000
     1.0000   1.0000   1.0000   1.0000   0.9998   0.0002   0.0001   0.0000
     0.0000   0.0000   0.0000   0.0000   0.0000   0.0000   0.0000   0.0000
     0.0000   0.0000   0.0000   0.0000   0.0000   0.0000   0.0000   0.0000
     0.0000   0.0000   0.0000   0.0000   0.0000   0.0000   0.0000   0.0000
     0.0000   0.0000   0.0000   0.0000   0.0000   0.0000   0.0000   0.0000
     0.0000   0.0000   0.0000   0.0000   0.0000   0.0000

          k = 0.3333 0.5774 0.0000 (126429 PWs)   bands (ev):

   -60.3619 -60.3573 -60.3559 -60.3440 -60.3386 -60.3377 -60.3317 -60.3094
   -60.3092 -60.3076 -60.3007 -60.3006 -60.2959 -60.2915 -60.2757 -60.2756
   -34.6411 -34.6290 -34.6168 -34.6036 -34.5970 -34.5932 -34.5823 -34.5617
   -34.5564 -34.5249 -34.5221 -34.5036 -34.4710 -34.4682 -34.4587 -34.4564
   -34.4559 -34.4410 -34.4323 -34.4278 -34.4262 -34.4241 -34.4230 -34.4217
   -34.4073 -34.4039 -34.3978 -34.3918 -34.3914 -34.3876 -34.3875 -34.3828
   -34.3782 -34.3760 -34.3718 -34.3640 -34.3616 -34.3590 -34.3581 -34.3564
   -34.3551 -34.3436 -34.3321 -34.3239 -34.3069 -34.2949 -34.2245 -34.2171
   -13.2022 -13.1911 -13.1283 -12.4791 -12.4740 -12.3886 -12.0805 -12.0578
   -12.0508 -11.9924 -11.9864 -11.9630 -11.9540 -11.9526 -11.8335 -11.7855
   -11.7761 -11.7219 -11.6017 -11.5941 -11.5650 -11.5637 -11.5618 -11.5571
   -11.5529 -11.5364 -11.4693 -11.3981 -11.3938 -11.3906 -11.3216  -4.8523
    -4.7967  -4.7946  -4.7833  -4.7785  -4.7642  -4.7570  -4.7562  -4.6886
    -4.6850  -4.6747  -4.6083  -4.5953  -4.4883  -4.4383  -4.3676  -4.3163
    -4.2634  -4.2590  -3.9493  -3.9329  -3.8696  -3.8521  -3.8516  -3.7569
    -3.6944  -3.4434  -3.3692  -3.3672  -3.3643  -3.3528  -3.3263  -3.3021
    -3.2949  -3.2861  -3.2821  -3.2421  -3.1790  -3.1783  -3.0432  -3.0207
    -2.9566  -2.8157  -2.7356  -2.6334  -2.6221  -2.6005  -2.5911  -2.5785
    -2.5712  -2.5582  -2.5351  -2.5175  -2.5165  -2.5130  -2.4537  -2.3830
    -2.1672  -2.1641  -2.0503  -2.0199  -2.0139  -1.7974  -1.7752  -1.7454
    -1.7363  -1.6824  -1.5946  -1.5380  -1.5049  -1.4935  -1.4757  -1.4220
    -1.3355  -1.3054  -1.2665  -1.2213  -1.1820  -1.0798  -1.0778  -1.0702
    -1.0632  -1.0557  -1.0518  -1.0511  -1.0397  -1.0250  -0.7710  -0.6603
    -0.5570  -0.4856  -0.4493  -0.4051  -0.2810  -0.2430  -0.2427  -0.2217
    -0.2148  -0.2049  -0.1804  -0.1636  -0.1210   0.1632   0.1735   0.2510
     0.3357   0.3825   0.4260   0.5132   0.5486   1.7234   1.7946   2.2158
     2.4957   2.5751   2.5814   2.6384   2.6543   2.6597   2.6993   2.7272
     2.7422   2.7905   2.7940   2.8170   2.9577   2.9641   2.9904   2.9976
     3.0397   3.0449   3.0469   3.0640   3.0676   3.0699   3.0785   3.1106
     3.1340   3.1468   3.1840   3.2116   3.2511   3.2920   3.3726   3.5501
     3.5560   3.6591   3.6773   3.6843   3.7686   3.8106

     occupation numbers 
     1.0000   1.0000   1.0000   1.0000   1.0000   1.0000   1.0000   1.0000
     1.0000   1.0000   1.0000   1.0000   1.0000   1.0000   1.0000   1.0000
     1.0000   1.0000   1.0000   1.0000   1.0000   1.0000   1.0000   1.0000
     1.0000   1.0000   1.0000   1.0000   1.0000   1.0000   1.0000   1.0000
     1.0000   1.0000   1.0000   1.0000   1.0000   1.0000   1.0000   1.0000
     1.0000   1.0000   1.0000   1.0000   1.0000   1.0000   1.0000   1.0000
     1.0000   1.0000   1.0000   1.0000   1.0000   1.0000   1.0000   1.0000
     1.0000   1.0000   1.0000   1.0000   1.0000   1.0000   1.0000   1.0000
     1.0000   1.0000   1.0000   1.0000   1.0000   1.0000   1.0000   1.0000
     1.0000   1.0000   1.0000   1.0000   1.0000   1.0000   1.0000   1.0000
     1.0000   1.0000   1.0000   1.0000   1.0000   1.0000   1.0000   1.0000
     1.0000   1.0000   1.0000   1.0000   1.0000   1.0000   1.0000   1.0000
     1.0000   1.0000   1.0000   1.0000   1.0000   1.0000   1.0000   1.0000
     1.0000   1.0000   1.0000   1.0000   1.0000   1.0000   1.0000   1.0000
     1.0000   1.0000   1.0000   1.0000   1.0000   1.0000   1.0000   1.0000
     1.0000   1.0000   1.0000   1.0000   1.0000   1.0000   1.0000   1.0000
     1.0000   1.0000   1.0000   1.0000   1.0000   1.0000   1.0000   1.0000
     1.0000   1.0000   1.0000   1.0000   1.0000   1.0000   1.0000   1.0000
     1.0000   1.0000   1.0000   1.0000   1.0000   1.0000   1.0000   1.0000
     1.0000   1.0000   1.0000   1.0000   1.0000   1.0000   1.0000   1.0000
     1.0000   1.0000   1.0000   1.0000   1.0000   1.0000   1.0000   1.0000
     1.0000   1.0000   1.0000   1.0000   1.0000   1.0000   1.0000   1.0000
     1.0000   1.0000   1.0000   1.0000   1.0000   1.0000   1.0000   1.0000
     1.0000   1.0000   1.0000   1.0000   1.0000   1.0000   1.0000   1.0000
     1.0000   1.0000   1.0000   1.0000   1.0000   1.0000   1.0000   1.0000
     1.0000   1.0000   1.0000   0.9999   0.9999   0.0003   0.0001   0.0000
     0.0000   0.0000   0.0000   0.0000   0.0000   0.0000   0.0000   0.0000
     0.0000   0.0000   0.0000   0.0000   0.0000   0.0000   0.0000   0.0000
     0.0000   0.0000   0.0000   0.0000   0.0000   0.0000   0.0000   0.0000
     0.0000   0.0000   0.0000   0.0000   0.0000   0.0000   0.0000   0.0000
     0.0000   0.0000   0.0000   0.0000   0.0000   0.0000

 ------ SPIN DOWN ----------


          k = 0.0000 0.0000 0.0000 (126355 PWs)   bands (ev):

   -60.3632 -60.3557 -60.3557 -60.3446 -60.3378 -60.3377 -60.3324 -60.3096
   -60.3095 -60.3077 -60.3000 -60.2999 -60.2965 -60.2917 -60.2757 -60.2756
   -34.6615 -34.6615 -34.6169 -34.5968 -34.5894 -34.5894 -34.5647 -34.5647
   -34.5255 -34.4862 -34.4752 -34.4744 -34.4743 -34.4724 -34.4724 -34.4520
   -34.4520 -34.4505 -34.4482 -34.4390 -34.4351 -34.4322 -34.4321 -34.4292
   -34.4292 -34.4050 -34.4050 -34.4007 -34.4006 -34.3972 -34.3864 -34.3863
   -34.3856 -34.3853 -34.3777 -34.3772 -34.3671 -34.3671 -34.3567 -34.3566
   -34.3374 -34.3374 -34.3345 -34.3059 -34.2933 -34.2933 -34.2150 -34.2148
   -13.4635 -12.7109 -12.7109 -12.6852 -12.6725 -12.6724 -12.5516 -12.1695
   -11.8952 -11.8952 -11.8468 -11.8455 -11.8455 -11.8116 -11.7198 -11.7197
   -11.7099 -11.7099 -11.6944 -11.6754 -11.6754 -11.6677 -11.5571 -11.4802
   -11.4801 -11.4568 -11.4568 -11.4391 -11.4390 -11.4344 -11.4274  -5.2008
    -5.0979  -5.0979  -4.9846  -4.5269  -4.5254  -4.5254  -4.4949  -4.4745
    -4.4745  -4.4258  -4.4104  -4.4103  -4.3876  -4.3876  -4.3666  -4.3118
    -4.3118  -4.2853  -4.2641  -4.2349  -4.2349  -4.1431  -3.9417  -3.9417
    -3.4821  -3.4821  -3.4374  -3.3180  -3.2616  -3.2495  -3.2495  -3.1802
    -3.1802  -3.0891  -3.0513  -3.0406  -3.0406  -3.0319  -3.0319  -2.9950
    -2.9728  -2.9728  -2.8490  -2.8490  -2.7262  -2.6703  -2.6702  -2.6408
    -2.6133  -2.6133  -2.5889  -2.4497  -2.4430  -2.4430  -2.3214  -2.3214
    -2.2972  -2.2445  -2.1597  -2.1597  -2.0302  -2.0302  -1.9352  -1.9229
    -1.9228  -1.9039  -1.6022  -1.6022  -1.2950  -1.2908  -1.2908  -1.2878
    -1.2730  -1.2730  -1.1838  -1.1574  -1.1063  -1.1063  -1.0601  -1.0601
    -1.0354  -1.0012  -1.0012  -0.9167  -0.8485  -0.8485  -0.7945  -0.7398
    -0.7398  -0.5403  -0.5403  -0.4563  -0.2458  -0.1681  -0.1681  -0.1360
    -0.1238  -0.1198  -0.1197  -0.0465  -0.0465  -0.0031  -0.0031   0.0260
     0.0364   0.0776   0.0776   0.4346   0.6834   1.7423   1.7424   2.6689
     2.6837   2.6923   2.6924   2.7272   2.7272   2.7369   2.7467   2.7467
     2.7720   2.7720   2.8081   2.8148   2.8148   2.8648   2.9113   2.9218
     2.9218   2.9768   3.1579   3.1579   3.2741   3.2939   3.2939   3.3258
     3.3258   3.3440   3.3546   3.3547   3.3852   3.4178   3.4178   3.4552
     3.4552   3.4629   3.5091   3.5092   3.5967   3.6602

     occupation numbers 
     1.0000   1.0000   1.0000   1.0000   1.0000   1.0000   1.0000   1.0000
     1.0000   1.0000   1.0000   1.0000   1.0000   1.0000   1.0000   1.0000
     1.0000   1.0000   1.0000   1.0000   1.0000   1.0000   1.0000   1.0000
     1.0000   1.0000   1.0000   1.0000   1.0000   1.0000   1.0000   1.0000
     1.0000   1.0000   1.0000   1.0000   1.0000   1.0000   1.0000   1.0000
     1.0000   1.0000   1.0000   1.0000   1.0000   1.0000   1.0000   1.0000
     1.0000   1.0000   1.0000   1.0000   1.0000   1.0000   1.0000   1.0000
     1.0000   1.0000   1.0000   1.0000   1.0000   1.0000   1.0000   1.0000
     1.0000   1.0000   1.0000   1.0000   1.0000   1.0000   1.0000   1.0000
     1.0000   1.0000   1.0000   1.0000   1.0000   1.0000   1.0000   1.0000
     1.0000   1.0000   1.0000   1.0000   1.0000   1.0000   1.0000   1.0000
     1.0000   1.0000   1.0000   1.0000   1.0000   1.0000   1.0000   1.0000
     1.0000   1.0000   1.0000   1.0000   1.0000   1.0000   1.0000   1.0000
     1.0000   1.0000   1.0000   1.0000   1.0000   1.0000   1.0000   1.0000
     1.0000   1.0000   1.0000   1.0000   1.0000   1.0000   1.0000   1.0000
     1.0000   1.0000   1.0000   1.0000   1.0000   1.0000   1.0000   1.0000
     1.0000   1.0000   1.0000   1.0000   1.0000   1.0000   1.0000   1.0000
     1.0000   1.0000   1.0000   1.0000   1.0000   1.0000   1.0000   1.0000
     1.0000   1.0000   1.0000   1.0000   1.0000   1.0000   1.0000   1.0000
     1.0000   1.0000   1.0000   1.0000   1.0000   1.0000   1.0000   1.0000
     1.0000   1.0000   1.0000   1.0000   1.0000   1.0000   1.0000   1.0000
     1.0000   1.0000   1.0000   1.0000   1.0000   1.0000   1.0000   1.0000
     1.0000   1.0000   1.0000   1.0000   1.0000   1.0000   1.0000   1.0000
     1.0000   1.0000   1.0000   1.0000   1.0000   1.0000   1.0000   1.0000
     1.0000   1.0000   1.0000   1.0000   1.0000   1.0000   1.0000   1.0000
     1.0000   1.0000   1.0000   1.0000   0.9992   0.0002   0.0002   0.0000
     0.0000   0.0000   0.0000   0.0000   0.0000   0.0000   0.0000   0.0000
     0.0000   0.0000   0.0000   0.0000   0.0000   0.0000   0.0000   0.0000
     0.0000   0.0000   0.0000   0.0000   0.0000   0.0000   0.0000   0.0000
     0.0000   0.0000   0.0000   0.0000   0.0000   0.0000   0.0000   0.0000
     0.0000   0.0000   0.0000   0.0000   0.0000   0.0000

          k = 0.0000 0.1925 0.0000 (126305 PWs)   bands (ev):

   -60.3629 -60.3561 -60.3557 -60.3445 -60.3380 -60.3377 -60.3323 -60.3095
   -60.3095 -60.3077 -60.3002 -60.3001 -60.2964 -60.2917 -60.2757 -60.2756
   -34.6587 -34.6567 -34.6136 -34.5994 -34.5914 -34.5887 -34.5693 -34.5616
   -34.5322 -34.5083 -34.4915 -34.4831 -34.4747 -34.4679 -34.4560 -34.4537
   -34.4523 -34.4442 -34.4438 -34.4396 -34.4349 -34.4289 -34.4280 -34.4240
   -34.4209 -34.4053 -34.4053 -34.4032 -34.3970 -34.3950 -34.3877 -34.3873
   -34.3852 -34.3780 -34.3780 -34.3731 -34.3680 -34.3671 -34.3567 -34.3565
   -34.3416 -34.3400 -34.3342 -34.3061 -34.2969 -34.2935 -34.2171 -34.2152
   -13.4388 -12.8938 -12.7916 -12.7477 -12.5587 -12.5121 -12.4251 -12.1597
   -11.9504 -11.9178 -11.8862 -11.8623 -11.8453 -11.8111 -11.7856 -11.7622
   -11.7167 -11.7088 -11.6814 -11.6774 -11.6251 -11.5801 -11.5460 -11.5181
   -11.4995 -11.4823 -11.4674 -11.4453 -11.4372 -11.4031 -11.3838  -5.1636
    -5.0644  -5.0638  -4.9551  -4.5843  -4.5504  -4.5489  -4.5342  -4.5193
    -4.4892  -4.4691  -4.4406  -4.4283  -4.4218  -4.4064  -4.3882  -4.3880
    -4.3002  -4.2678  -4.2507  -4.1638  -4.0946  -4.0860  -3.9105  -3.8888
    -3.4689  -3.4685  -3.4185  -3.3333  -3.3033  -3.2763  -3.2742  -3.1923
    -3.1628  -3.1596  -3.1303  -3.1077  -3.0987  -3.0841  -3.0766  -3.0087
    -3.0034  -2.8987  -2.7593  -2.7524  -2.6927  -2.6763  -2.6441  -2.6417
    -2.5935  -2.5878  -2.5608  -2.5558  -2.5414  -2.3937  -2.2975  -2.2919
    -2.1615  -2.1505  -2.1123  -2.0994  -2.0634  -2.0153  -1.9989  -1.9725
    -1.9262  -1.8009  -1.6353  -1.5982  -1.4356  -1.4127  -1.3177  -1.2943
    -1.2472  -1.2418  -1.2230  -1.2087  -1.1497  -1.1450  -1.0683  -1.0625
    -1.0195  -0.9638  -0.9116  -0.9040  -0.8226  -0.7999  -0.7502  -0.6733
    -0.6624  -0.6118  -0.6031  -0.5136  -0.3298  -0.2624  -0.2276  -0.1569
    -0.1313  -0.1274  -0.0507  -0.0378  -0.0301   0.0141   0.0144   0.0361
     0.1124   0.1859   0.1908   0.4394   0.6669   1.7424   1.7475   2.5692
     2.5841   2.6821   2.6895   2.7114   2.7182   2.7225   2.7317   2.7581
     2.7629   2.7864   2.7939   2.8266   2.8300   2.8661   2.8927   2.9640
     2.9713   3.0054   3.1113   3.1170   3.1878   3.2228   3.2408   3.2533
     3.2832   3.2894   3.3205   3.3422   3.3687   3.3807   3.4205   3.4375
     3.5150   3.5337   3.6079   3.6273   3.6436   3.6446

     occupation numbers 
     1.0000   1.0000   1.0000   1.0000   1.0000   1.0000   1.0000   1.0000
     1.0000   1.0000   1.0000   1.0000   1.0000   1.0000   1.0000   1.0000
     1.0000   1.0000   1.0000   1.0000   1.0000   1.0000   1.0000   1.0000
     1.0000   1.0000   1.0000   1.0000   1.0000   1.0000   1.0000   1.0000
     1.0000   1.0000   1.0000   1.0000   1.0000   1.0000   1.0000   1.0000
     1.0000   1.0000   1.0000   1.0000   1.0000   1.0000   1.0000   1.0000
     1.0000   1.0000   1.0000   1.0000   1.0000   1.0000   1.0000   1.0000
     1.0000   1.0000   1.0000   1.0000   1.0000   1.0000   1.0000   1.0000
     1.0000   1.0000   1.0000   1.0000   1.0000   1.0000   1.0000   1.0000
     1.0000   1.0000   1.0000   1.0000   1.0000   1.0000   1.0000   1.0000
     1.0000   1.0000   1.0000   1.0000   1.0000   1.0000   1.0000   1.0000
     1.0000   1.0000   1.0000   1.0000   1.0000   1.0000   1.0000   1.0000
     1.0000   1.0000   1.0000   1.0000   1.0000   1.0000   1.0000   1.0000
     1.0000   1.0000   1.0000   1.0000   1.0000   1.0000   1.0000   1.0000
     1.0000   1.0000   1.0000   1.0000   1.0000   1.0000   1.0000   1.0000
     1.0000   1.0000   1.0000   1.0000   1.0000   1.0000   1.0000   1.0000
     1.0000   1.0000   1.0000   1.0000   1.0000   1.0000   1.0000   1.0000
     1.0000   1.0000   1.0000   1.0000   1.0000   1.0000   1.0000   1.0000
     1.0000   1.0000   1.0000   1.0000   1.0000   1.0000   1.0000   1.0000
     1.0000   1.0000   1.0000   1.0000   1.0000   1.0000   1.0000   1.0000
     1.0000   1.0000   1.0000   1.0000   1.0000   1.0000   1.0000   1.0000
     1.0000   1.0000   1.0000   1.0000   1.0000   1.0000   1.0000   1.0000
     1.0000   1.0000   1.0000   1.0000   1.0000   1.0000   1.0000   1.0000
     1.0000   1.0000   1.0000   1.0000   1.0000   1.0000   1.0000   1.0000
     1.0000   1.0000   1.0000   1.0000   1.0000   1.0000   1.0000   1.0000
     1.0000   1.0000   1.0000   1.0000   0.9994   0.0002   0.0002   0.0000
     0.0000   0.0000   0.0000   0.0000   0.0000   0.0000   0.0000   0.0000
     0.0000   0.0000   0.0000   0.0000   0.0000   0.0000   0.0000   0.0000
     0.0000   0.0000   0.0000   0.0000   0.0000   0.0000   0.0000   0.0000
     0.0000   0.0000   0.0000   0.0000   0.0000   0.0000   0.0000   0.0000
     0.0000   0.0000   0.0000   0.0000   0.0000   0.0000

          k = 0.0000 0.3849 0.0000 (126328 PWs)   bands (ev):

   -60.3624 -60.3568 -60.3557 -60.3442 -60.3384 -60.3377 -60.3320 -60.3094
   -60.3093 -60.3076 -60.3005 -60.3003 -60.2961 -60.2916 -60.2757 -60.2756
   -34.6515 -34.6432 -34.6101 -34.6061 -34.5950 -34.5906 -34.5714 -34.5538
   -34.5487 -34.5335 -34.5099 -34.4847 -34.4758 -34.4729 -34.4586 -34.4561
   -34.4527 -34.4419 -34.4334 -34.4311 -34.4307 -34.4274 -34.4258 -34.4122
   -34.4081 -34.4057 -34.4040 -34.3971 -34.3919 -34.3909 -34.3888 -34.3853
   -34.3830 -34.3781 -34.3765 -34.3765 -34.3663 -34.3572 -34.3565 -34.3525
   -34.3499 -34.3453 -34.3358 -34.3073 -34.3069 -34.2934 -34.2219 -34.2158
   -13.3662 -13.0840 -12.8517 -12.7989 -12.4016 -12.3667 -12.2139 -12.1314
   -12.0437 -12.0370 -11.9910 -11.9351 -11.8962 -11.8249 -11.7522 -11.7374
   -11.7056 -11.6829 -11.6813 -11.6688 -11.6305 -11.5936 -11.5609 -11.5214
   -11.5012 -11.4760 -11.4645 -11.4457 -11.4376 -11.3731 -11.3476  -5.0584
    -4.9706  -4.9673  -4.8702  -4.7243  -4.6764  -4.6595  -4.6162  -4.6070
    -4.5744  -4.5095  -4.4996  -4.4385  -4.4233  -4.4070  -4.3628  -4.3543
    -4.3070  -4.2479  -4.2268  -4.1702  -4.0306  -3.9355  -3.7420  -3.7118
    -3.5321  -3.4305  -3.4279  -3.3749  -3.3304  -3.3089  -3.3069  -3.2876
    -3.2624  -3.2451  -3.2384  -3.2011  -3.1548  -3.1517  -3.1251  -3.0070
    -2.9342  -2.7975  -2.6953  -2.6825  -2.6535  -2.6369  -2.6272  -2.6265
    -2.5980  -2.5612  -2.5425  -2.4819  -2.4397  -2.4108  -2.3807  -2.3249
    -2.3079  -2.2391  -2.1083  -2.0829  -2.0143  -1.9365  -1.8527  -1.7594
    -1.7485  -1.6841  -1.6795  -1.5776  -1.5746  -1.4684  -1.3839  -1.3649
    -1.3192  -1.3110  -1.2283  -1.2215  -1.1722  -1.1649  -1.1363  -1.1243
    -1.0139  -1.0049  -0.9507  -0.9078  -0.8177  -0.7879  -0.7483  -0.6810
    -0.6179  -0.6058  -0.5014  -0.4646  -0.3846  -0.3115  -0.2701  -0.2346
    -0.2004  -0.1950  -0.0103   0.0061   0.0179   0.0391   0.0517   0.0662
     0.2931   0.3214   0.3294   0.4535   0.6180   1.7423   1.7610   2.4266
     2.4573   2.6066   2.6342   2.6561   2.6881   2.6957   2.7200   2.7403
     2.7580   2.7739   2.8039   2.8437   2.8728   2.8996   2.9318   2.9955
     3.0086   3.0443   3.0647   3.0949   3.1034   3.1216   3.1475   3.1757
     3.2021   3.2526   3.2726   3.3019   3.3425   3.3515   3.3709   3.4667
     3.5107   3.5347   3.5804   3.6560   3.7395   3.7433

     occupation numbers 
     1.0000   1.0000   1.0000   1.0000   1.0000   1.0000   1.0000   1.0000
     1.0000   1.0000   1.0000   1.0000   1.0000   1.0000   1.0000   1.0000
     1.0000   1.0000   1.0000   1.0000   1.0000   1.0000   1.0000   1.0000
     1.0000   1.0000   1.0000   1.0000   1.0000   1.0000   1.0000   1.0000
     1.0000   1.0000   1.0000   1.0000   1.0000   1.0000   1.0000   1.0000
     1.0000   1.0000   1.0000   1.0000   1.0000   1.0000   1.0000   1.0000
     1.0000   1.0000   1.0000   1.0000   1.0000   1.0000   1.0000   1.0000
     1.0000   1.0000   1.0000   1.0000   1.0000   1.0000   1.0000   1.0000
     1.0000   1.0000   1.0000   1.0000   1.0000   1.0000   1.0000   1.0000
     1.0000   1.0000   1.0000   1.0000   1.0000   1.0000   1.0000   1.0000
     1.0000   1.0000   1.0000   1.0000   1.0000   1.0000   1.0000   1.0000
     1.0000   1.0000   1.0000   1.0000   1.0000   1.0000   1.0000   1.0000
     1.0000   1.0000   1.0000   1.0000   1.0000   1.0000   1.0000   1.0000
     1.0000   1.0000   1.0000   1.0000   1.0000   1.0000   1.0000   1.0000
     1.0000   1.0000   1.0000   1.0000   1.0000   1.0000   1.0000   1.0000
     1.0000   1.0000   1.0000   1.0000   1.0000   1.0000   1.0000   1.0000
     1.0000   1.0000   1.0000   1.0000   1.0000   1.0000   1.0000   1.0000
     1.0000   1.0000   1.0000   1.0000   1.0000   1.0000   1.0000   1.0000
     1.0000   1.0000   1.0000   1.0000   1.0000   1.0000   1.0000   1.0000
     1.0000   1.0000   1.0000   1.0000   1.0000   1.0000   1.0000   1.0000
     1.0000   1.0000   1.0000   1.0000   1.0000   1.0000   1.0000   1.0000
     1.0000   1.0000   1.0000   1.0000   1.0000   1.0000   1.0000   1.0000
     1.0000   1.0000   1.0000   1.0000   1.0000   1.0000   1.0000   1.0000
     1.0000   1.0000   1.0000   1.0000   1.0000   1.0000   1.0000   1.0000
     1.0000   1.0000   1.0000   1.0000   1.0000   1.0000   1.0000   1.0000
     1.0000   1.0000   1.0000   1.0000   0.9997   0.0002   0.0002   0.0000
     0.0000   0.0000   0.0000   0.0000   0.0000   0.0000   0.0000   0.0000
     0.0000   0.0000   0.0000   0.0000   0.0000   0.0000   0.0000   0.0000
     0.0000   0.0000   0.0000   0.0000   0.0000   0.0000   0.0000   0.0000
     0.0000   0.0000   0.0000   0.0000   0.0000   0.0000   0.0000   0.0000
     0.0000   0.0000   0.0000   0.0000   0.0000   0.0000

          k = 0.0000-0.5774 0.0000 (126288 PWs)   bands (ev):

   -60.3621 -60.3573 -60.3558 -60.3441 -60.3385 -60.3376 -60.3318 -60.3094
   -60.3093 -60.3076 -60.3007 -60.3004 -60.2960 -60.2916 -60.2757 -60.2756
   -34.6460 -34.6291 -34.6175 -34.6142 -34.5935 -34.5896 -34.5691 -34.5578
   -34.5479 -34.5457 -34.5196 -34.4809 -34.4799 -34.4718 -34.4655 -34.4595
   -34.4529 -34.4427 -34.4324 -34.4272 -34.4251 -34.4217 -34.4213 -34.4076
   -34.4055 -34.4052 -34.3986 -34.3966 -34.3964 -34.3904 -34.3896 -34.3890
   -34.3815 -34.3779 -34.3687 -34.3677 -34.3672 -34.3584 -34.3570 -34.3553
   -34.3551 -34.3377 -34.3369 -34.3160 -34.3081 -34.2932 -34.2245 -34.2161
   -13.2682 -13.2222 -12.8721 -12.8172 -12.2459 -12.2294 -12.2226 -12.1580
   -12.0966 -12.0765 -12.0178 -11.9525 -11.9434 -11.9007 -11.7090 -11.7052
   -11.6994 -11.6749 -11.6661 -11.6632 -11.6581 -11.6017 -11.5960 -11.5512
   -11.4802 -11.4616 -11.4571 -11.4426 -11.4377 -11.3620 -11.3347  -4.9255
    -4.8774  -4.8664  -4.8474  -4.7889  -4.7848  -4.7599  -4.7101  -4.6588
    -4.6575  -4.4953  -4.4935  -4.4509  -4.4371  -4.4135  -4.3416  -4.3286
    -4.2980  -4.2449  -4.2296  -4.1450  -4.0340  -3.8103  -3.7348  -3.5666
    -3.5072  -3.4367  -3.4363  -3.3824  -3.3715  -3.3632  -3.3336  -3.3315
    -3.3056  -3.2946  -3.2809  -3.2399  -3.1971  -3.1736  -3.1293  -2.9904
    -2.9557  -2.6688  -2.6599  -2.6329  -2.6304  -2.6008  -2.5879  -2.5717
    -2.5641  -2.5578  -2.5508  -2.5257  -2.5190  -2.4296  -2.4284  -2.3919
    -2.3580  -2.2305  -2.1076  -2.0370  -2.0211  -1.9291  -1.8544  -1.8285
    -1.6925  -1.5086  -1.4958  -1.4372  -1.4058  -1.4003  -1.3967  -1.3738
    -1.3599  -1.3525  -1.3286  -1.3148  -1.2904  -1.2149  -1.1908  -1.1727
    -1.1654  -1.1635  -0.9594  -0.9303  -0.8077  -0.7239  -0.7026  -0.6549
    -0.6354  -0.5979  -0.4400  -0.4140  -0.3564  -0.3165  -0.2960  -0.2700
    -0.2513  -0.2227   0.0021   0.0323   0.0323   0.0492   0.0693   0.0793
     0.3712   0.3802   0.4030   0.4684   0.5702   1.7417   1.7697   2.3626
     2.4024   2.5687   2.5978   2.6095   2.6590   2.6839   2.7168   2.7412
     2.7605   2.7702   2.8058   2.8366   2.8853   2.9950   3.0038   3.0195
     3.0254   3.0417   3.0459   3.0575   3.0620   3.0742   3.0770   3.1306
     3.1449   3.2032   3.2990   3.3030   3.3256   3.3273   3.3451   3.4976
     3.5188   3.5309   3.6204   3.6616   3.6818   3.7442

     occupation numbers 
     1.0000   1.0000   1.0000   1.0000   1.0000   1.0000   1.0000   1.0000
     1.0000   1.0000   1.0000   1.0000   1.0000   1.0000   1.0000   1.0000
     1.0000   1.0000   1.0000   1.0000   1.0000   1.0000   1.0000   1.0000
     1.0000   1.0000   1.0000   1.0000   1.0000   1.0000   1.0000   1.0000
     1.0000   1.0000   1.0000   1.0000   1.0000   1.0000   1.0000   1.0000
     1.0000   1.0000   1.0000   1.0000   1.0000   1.0000   1.0000   1.0000
     1.0000   1.0000   1.0000   1.0000   1.0000   1.0000   1.0000   1.0000
     1.0000   1.0000   1.0000   1.0000   1.0000   1.0000   1.0000   1.0000
     1.0000   1.0000   1.0000   1.0000   1.0000   1.0000   1.0000   1.0000
     1.0000   1.0000   1.0000   1.0000   1.0000   1.0000   1.0000   1.0000
     1.0000   1.0000   1.0000   1.0000   1.0000   1.0000   1.0000   1.0000
     1.0000   1.0000   1.0000   1.0000   1.0000   1.0000   1.0000   1.0000
     1.0000   1.0000   1.0000   1.0000   1.0000   1.0000   1.0000   1.0000
     1.0000   1.0000   1.0000   1.0000   1.0000   1.0000   1.0000   1.0000
     1.0000   1.0000   1.0000   1.0000   1.0000   1.0000   1.0000   1.0000
     1.0000   1.0000   1.0000   1.0000   1.0000   1.0000   1.0000   1.0000
     1.0000   1.0000   1.0000   1.0000   1.0000   1.0000   1.0000   1.0000
     1.0000   1.0000   1.0000   1.0000   1.0000   1.0000   1.0000   1.0000
     1.0000   1.0000   1.0000   1.0000   1.0000   1.0000   1.0000   1.0000
     1.0000   1.0000   1.0000   1.0000   1.0000   1.0000   1.0000   1.0000
     1.0000   1.0000   1.0000   1.0000   1.0000   1.0000   1.0000   1.0000
     1.0000   1.0000   1.0000   1.0000   1.0000   1.0000   1.0000   1.0000
     1.0000   1.0000   1.0000   1.0000   1.0000   1.0000   1.0000   1.0000
     1.0000   1.0000   1.0000   1.0000   1.0000   1.0000   1.0000   1.0000
     1.0000   1.0000   1.0000   1.0000   1.0000   1.0000   1.0000   1.0000
     1.0000   1.0000   1.0000   1.0000   0.9998   0.0002   0.0001   0.0000
     0.0000   0.0000   0.0000   0.0000   0.0000   0.0000   0.0000   0.0000
     0.0000   0.0000   0.0000   0.0000   0.0000   0.0000   0.0000   0.0000
     0.0000   0.0000   0.0000   0.0000   0.0000   0.0000   0.0000   0.0000
     0.0000   0.0000   0.0000   0.0000   0.0000   0.0000   0.0000   0.0000
     0.0000   0.0000   0.0000   0.0000   0.0000   0.0000

          k = 0.1667 0.2887 0.0000 (126343 PWs)   bands (ev):

   -60.3626 -60.3566 -60.3558 -60.3443 -60.3382 -60.3377 -60.3320 -60.3095
   -60.3094 -60.3077 -60.3004 -60.3003 -60.2962 -60.2916 -60.2757 -60.2756
   -34.6535 -34.6475 -34.6079 -34.6043 -34.5992 -34.5826 -34.5761 -34.5591
   -34.5405 -34.5286 -34.5010 -34.4940 -34.4735 -34.4659 -34.4563 -34.4549
   -34.4530 -34.4423 -34.4385 -34.4339 -34.4301 -34.4279 -34.4261 -34.4245
   -34.4066 -34.4048 -34.4024 -34.3969 -34.3940 -34.3906 -34.3879 -34.3868
   -34.3843 -34.3790 -34.3777 -34.3736 -34.3670 -34.3588 -34.3565 -34.3560
   -34.3470 -34.3441 -34.3356 -34.3076 -34.3026 -34.2939 -34.2205 -34.2157
   -13.3901 -12.9928 -12.9557 -12.6428 -12.5768 -12.3170 -12.3001 -12.1409
   -12.0388 -11.9862 -11.9695 -11.8638 -11.8522 -11.8288 -11.7969 -11.7653
   -11.7476 -11.6998 -11.6909 -11.6254 -11.6004 -11.5876 -11.5360 -11.5300
   -11.5031 -11.4945 -11.4884 -11.4465 -11.4055 -11.3974 -11.3513  -5.0921
    -5.0003  -4.9985  -4.8979  -4.6660  -4.6416  -4.6151  -4.5764  -4.5489
    -4.5416  -4.5216  -4.5079  -4.4887  -4.4477  -4.4414  -4.3863  -4.3605
    -4.2939  -4.2339  -4.2000  -4.0973  -4.0517  -3.9813  -3.8800  -3.7084
    -3.4494  -3.4469  -3.4374  -3.4144  -3.3551  -3.3262  -3.2882  -3.2689
    -3.2321  -3.2248  -3.1870  -3.1741  -3.1336  -3.1158  -3.0529  -2.9770
    -2.9358  -2.8893  -2.8209  -2.7775  -2.6916  -2.6662  -2.6229  -2.5995
    -2.5711  -2.5443  -2.5161  -2.4802  -2.3929  -2.3607  -2.3054  -2.2786
    -2.2579  -2.2343  -2.2132  -2.1444  -2.0544  -1.9574  -1.8708  -1.7773
    -1.7430  -1.7416  -1.6477  -1.6188  -1.5963  -1.4705  -1.3834  -1.3389
    -1.3122  -1.2583  -1.2396  -1.2283  -1.1981  -1.1330  -1.1003  -1.0523
    -0.9973  -0.9644  -0.9521  -0.9187  -0.8269  -0.7972  -0.7370  -0.6817
    -0.6220  -0.5909  -0.5458  -0.5256  -0.3531  -0.3395  -0.2290  -0.1970
    -0.1388  -0.1332  -0.1147  -0.0995  -0.0512   0.0644   0.1223   0.1521
     0.2127   0.2200   0.3426   0.4477   0.6338   1.7381   1.7618   2.4059
     2.5928   2.6062   2.6306   2.6677   2.6820   2.7089   2.7238   2.7440
     2.7675   2.7756   2.8094   2.8313   2.8577   2.8801   2.9245   2.9825
     3.0050   3.0415   3.0700   3.1020   3.1359   3.1530   3.1710   3.1795
     3.2172   3.2333   3.2936   3.3026   3.3037   3.3650   3.3819   3.4628
     3.5318   3.5517   3.6340   3.6841   3.7095   3.7224

     occupation numbers 
     1.0000   1.0000   1.0000   1.0000   1.0000   1.0000   1.0000   1.0000
     1.0000   1.0000   1.0000   1.0000   1.0000   1.0000   1.0000   1.0000
     1.0000   1.0000   1.0000   1.0000   1.0000   1.0000   1.0000   1.0000
     1.0000   1.0000   1.0000   1.0000   1.0000   1.0000   1.0000   1.0000
     1.0000   1.0000   1.0000   1.0000   1.0000   1.0000   1.0000   1.0000
     1.0000   1.0000   1.0000   1.0000   1.0000   1.0000   1.0000   1.0000
     1.0000   1.0000   1.0000   1.0000   1.0000   1.0000   1.0000   1.0000
     1.0000   1.0000   1.0000   1.0000   1.0000   1.0000   1.0000   1.0000
     1.0000   1.0000   1.0000   1.0000   1.0000   1.0000   1.0000   1.0000
     1.0000   1.0000   1.0000   1.0000   1.0000   1.0000   1.0000   1.0000
     1.0000   1.0000   1.0000   1.0000   1.0000   1.0000   1.0000   1.0000
     1.0000   1.0000   1.0000   1.0000   1.0000   1.0000   1.0000   1.0000
     1.0000   1.0000   1.0000   1.0000   1.0000   1.0000   1.0000   1.0000
     1.0000   1.0000   1.0000   1.0000   1.0000   1.0000   1.0000   1.0000
     1.0000   1.0000   1.0000   1.0000   1.0000   1.0000   1.0000   1.0000
     1.0000   1.0000   1.0000   1.0000   1.0000   1.0000   1.0000   1.0000
     1.0000   1.0000   1.0000   1.0000   1.0000   1.0000   1.0000   1.0000
     1.0000   1.0000   1.0000   1.0000   1.0000   1.0000   1.0000   1.0000
     1.0000   1.0000   1.0000   1.0000   1.0000   1.0000   1.0000   1.0000
     1.0000   1.0000   1.0000   1.0000   1.0000   1.0000   1.0000   1.0000
     1.0000   1.0000   1.0000   1.0000   1.0000   1.0000   1.0000   1.0000
     1.0000   1.0000   1.0000   1.0000   1.0000   1.0000   1.0000   1.0000
     1.0000   1.0000   1.0000   1.0000   1.0000   1.0000   1.0000   1.0000
     1.0000   1.0000   1.0000   1.0000   1.0000   1.0000   1.0000   1.0000
     1.0000   1.0000   1.0000   1.0000   1.0000   1.0000   1.0000   1.0000
     1.0000   1.0000   1.0000   1.0000   0.9996   0.0002   0.0002   0.0000
     0.0000   0.0000   0.0000   0.0000   0.0000   0.0000   0.0000   0.0000
     0.0000   0.0000   0.0000   0.0000   0.0000   0.0000   0.0000   0.0000
     0.0000   0.0000   0.0000   0.0000   0.0000   0.0000   0.0000   0.0000
     0.0000   0.0000   0.0000   0.0000   0.0000   0.0000   0.0000   0.0000
     0.0000   0.0000   0.0000   0.0000   0.0000   0.0000

          k = 0.1667 0.4811 0.0000 (126406 PWs)   bands (ev):

   -60.3621 -60.3572 -60.3558 -60.3441 -60.3385 -60.3377 -60.3318 -60.3094
   -60.3092 -60.3076 -60.3007 -60.3005 -60.2960 -60.2916 -60.2758 -60.2756
   -34.6458 -34.6329 -34.6152 -34.6058 -34.6004 -34.5869 -34.5731 -34.5614
   -34.5556 -34.5310 -34.5168 -34.4973 -34.4721 -34.4716 -34.4588 -34.4546
   -34.4489 -34.4423 -34.4413 -34.4326 -34.4275 -34.4247 -34.4206 -34.4080
   -34.4065 -34.4043 -34.4015 -34.3978 -34.3916 -34.3898 -34.3872 -34.3834
   -34.3798 -34.3778 -34.3725 -34.3709 -34.3638 -34.3574 -34.3569 -34.3554
   -34.3536 -34.3418 -34.3370 -34.3158 -34.3068 -34.2941 -34.2239 -34.2165
   -13.2962 -13.1515 -13.0124 -12.6498 -12.4314 -12.2424 -12.1611 -12.1140
   -12.0849 -12.0498 -12.0061 -11.9758 -11.8928 -11.8496 -11.8110 -11.7698
   -11.7512 -11.6864 -11.6422 -11.6231 -11.6083 -11.5815 -11.5679 -11.5468
   -11.5063 -11.5005 -11.4740 -11.4217 -11.4083 -11.3769 -11.3299  -4.9618
    -4.8878  -4.8803  -4.7949  -4.7834  -4.7545  -4.7129  -4.6824  -4.6409
    -4.6261  -4.6033  -4.5554  -4.5013  -4.4855  -4.4130  -4.3637  -4.3492
    -4.2724  -4.2537  -4.1024  -4.0540  -3.9673  -3.8754  -3.7799  -3.6584
    -3.5745  -3.4192  -3.4073  -3.3833  -3.3535  -3.3403  -3.3240  -3.3085
    -3.2955  -3.2795  -3.2668  -3.2323  -3.2272  -3.1416  -3.1010  -3.0030
    -2.9151  -2.8190  -2.7431  -2.6953  -2.6588  -2.6274  -2.5978  -2.5768
    -2.5476  -2.5132  -2.4984  -2.4793  -2.4511  -2.4262  -2.3948  -2.3786
    -2.2998  -2.2564  -2.1585  -2.0327  -1.9994  -1.8645  -1.8145  -1.7707
    -1.6945  -1.6720  -1.6035  -1.4995  -1.4798  -1.4476  -1.3946  -1.3607
    -1.3538  -1.3390  -1.3052  -1.2615  -1.2210  -1.2100  -1.1625  -1.1226
    -1.0870  -1.0307  -0.9938  -0.9683  -0.8913  -0.7973  -0.7614  -0.6907
    -0.5731  -0.5501  -0.4540  -0.4349  -0.3288  -0.3023  -0.2611  -0.2410
    -0.2214  -0.1896  -0.1090  -0.0948  -0.0555   0.1085   0.1475   0.2160
     0.2870   0.3584   0.4440   0.4646   0.5768   1.7317   1.7807   2.2817
     2.5272   2.5363   2.5976   2.6270   2.6669   2.6850   2.7086   2.7227
     2.7625   2.7887   2.7974   2.8298   2.8889   2.9545   2.9837   3.0012
     3.0246   3.0417   3.0592   3.0730   3.0845   3.1050   3.1114   3.1247
     3.1560   3.1675   3.1941   3.2388   3.3030   3.3443   3.4122   3.4487
     3.5314   3.5838   3.6738   3.7151   3.7539   3.7652

     occupation numbers 
     1.0000   1.0000   1.0000   1.0000   1.0000   1.0000   1.0000   1.0000
     1.0000   1.0000   1.0000   1.0000   1.0000   1.0000   1.0000   1.0000
     1.0000   1.0000   1.0000   1.0000   1.0000   1.0000   1.0000   1.0000
     1.0000   1.0000   1.0000   1.0000   1.0000   1.0000   1.0000   1.0000
     1.0000   1.0000   1.0000   1.0000   1.0000   1.0000   1.0000   1.0000
     1.0000   1.0000   1.0000   1.0000   1.0000   1.0000   1.0000   1.0000
     1.0000   1.0000   1.0000   1.0000   1.0000   1.0000   1.0000   1.0000
     1.0000   1.0000   1.0000   1.0000   1.0000   1.0000   1.0000   1.0000
     1.0000   1.0000   1.0000   1.0000   1.0000   1.0000   1.0000   1.0000
     1.0000   1.0000   1.0000   1.0000   1.0000   1.0000   1.0000   1.0000
     1.0000   1.0000   1.0000   1.0000   1.0000   1.0000   1.0000   1.0000
     1.0000   1.0000   1.0000   1.0000   1.0000   1.0000   1.0000   1.0000
     1.0000   1.0000   1.0000   1.0000   1.0000   1.0000   1.0000   1.0000
     1.0000   1.0000   1.0000   1.0000   1.0000   1.0000   1.0000   1.0000
     1.0000   1.0000   1.0000   1.0000   1.0000   1.0000   1.0000   1.0000
     1.0000   1.0000   1.0000   1.0000   1.0000   1.0000   1.0000   1.0000
     1.0000   1.0000   1.0000   1.0000   1.0000   1.0000   1.0000   1.0000
     1.0000   1.0000   1.0000   1.0000   1.0000   1.0000   1.0000   1.0000
     1.0000   1.0000   1.0000   1.0000   1.0000   1.0000   1.0000   1.0000
     1.0000   1.0000   1.0000   1.0000   1.0000   1.0000   1.0000   1.0000
     1.0000   1.0000   1.0000   1.0000   1.0000   1.0000   1.0000   1.0000
     1.0000   1.0000   1.0000   1.0000   1.0000   1.0000   1.0000   1.0000
     1.0000   1.0000   1.0000   1.0000   1.0000   1.0000   1.0000   1.0000
     1.0000   1.0000   1.0000   1.0000   1.0000   1.0000   1.0000   1.0000
     1.0000   1.0000   1.0000   1.0000   1.0000   1.0000   1.0000   1.0000
     1.0000   1.0000   1.0000   1.0000   0.9998   0.0002   0.0001   0.0000
     0.0000   0.0000   0.0000   0.0000   0.0000   0.0000   0.0000   0.0000
     0.0000   0.0000   0.0000   0.0000   0.0000   0.0000   0.0000   0.0000
     0.0000   0.0000   0.0000   0.0000   0.0000   0.0000   0.0000   0.0000
     0.0000   0.0000   0.0000   0.0000   0.0000   0.0000   0.0000   0.0000
     0.0000   0.0000   0.0000   0.0000   0.0000   0.0000

          k = 0.3333 0.5774 0.0000 (126429 PWs)   bands (ev):

   -60.3619 -60.3573 -60.3559 -60.3440 -60.3386 -60.3377 -60.3317 -60.3094
   -60.3092 -60.3076 -60.3007 -60.3006 -60.2959 -60.2915 -60.2757 -60.2756
   -34.6411 -34.6290 -34.6168 -34.6036 -34.5970 -34.5932 -34.5823 -34.5617
   -34.5564 -34.5249 -34.5221 -34.5036 -34.4710 -34.4682 -34.4587 -34.4564
   -34.4559 -34.4410 -34.4323 -34.4278 -34.4262 -34.4241 -34.4230 -34.4217
   -34.4073 -34.4039 -34.3978 -34.3918 -34.3914 -34.3876 -34.3875 -34.3828
   -34.3782 -34.3760 -34.3718 -34.3640 -34.3616 -34.3590 -34.3581 -34.3564
   -34.3551 -34.3436 -34.3321 -34.3239 -34.3069 -34.2949 -34.2245 -34.2171
   -13.2022 -13.1911 -13.1283 -12.4791 -12.4740 -12.3886 -12.0805 -12.0578
   -12.0508 -11.9924 -11.9864 -11.9630 -11.9540 -11.9526 -11.8335 -11.7855
   -11.7761 -11.7219 -11.6017 -11.5941 -11.5650 -11.5637 -11.5618 -11.5571
   -11.5529 -11.5364 -11.4693 -11.3981 -11.3938 -11.3906 -11.3216  -4.8523
    -4.7967  -4.7946  -4.7833  -4.7785  -4.7642  -4.7570  -4.7562  -4.6886
    -4.6850  -4.6747  -4.6083  -4.5953  -4.4883  -4.4383  -4.3676  -4.3163
    -4.2634  -4.2590  -3.9493  -3.9329  -3.8696  -3.8521  -3.8516  -3.7569
    -3.6944  -3.4434  -3.3692  -3.3672  -3.3643  -3.3528  -3.3263  -3.3021
    -3.2949  -3.2861  -3.2821  -3.2421  -3.1790  -3.1783  -3.0432  -3.0207
    -2.9566  -2.8157  -2.7356  -2.6334  -2.6221  -2.6005  -2.5911  -2.5785
    -2.5712  -2.5582  -2.5351  -2.5175  -2.5165  -2.5130  -2.4537  -2.3830
    -2.1672  -2.1641  -2.0503  -2.0199  -2.0139  -1.7974  -1.7752  -1.7454
    -1.7363  -1.6824  -1.5946  -1.5380  -1.5049  -1.4935  -1.4757  -1.4220
    -1.3355  -1.3054  -1.2665  -1.2213  -1.1820  -1.0798  -1.0778  -1.0702
    -1.0632  -1.0557  -1.0518  -1.0511  -1.0397  -1.0250  -0.7710  -0.6603
    -0.5570  -0.4856  -0.4493  -0.4051  -0.2810  -0.2430  -0.2427  -0.2217
    -0.2148  -0.2049  -0.1804  -0.1636  -0.1210   0.1632   0.1735   0.2510
     0.3357   0.3825   0.4260   0.5132   0.5486   1.7234   1.7946   2.2158
     2.4957   2.5751   2.5814   2.6384   2.6543   2.6597   2.6993   2.7272
     2.7422   2.7905   2.7940   2.8170   2.9577   2.9641   2.9904   2.9976
     3.0397   3.0449   3.0469   3.0640   3.0676   3.0699   3.0785   3.1106
     3.1340   3.1468   3.1840   3.2116   3.2511   3.2920   3.3726   3.5501
     3.5560   3.6591   3.6773   3.6843   3.7686   3.8106

     occupation numbers 
     1.0000   1.0000   1.0000   1.0000   1.0000   1.0000   1.0000   1.0000
     1.0000   1.0000   1.0000   1.0000   1.0000   1.0000   1.0000   1.0000
     1.0000   1.0000   1.0000   1.0000   1.0000   1.0000   1.0000   1.0000
     1.0000   1.0000   1.0000   1.0000   1.0000   1.0000   1.0000   1.0000
     1.0000   1.0000   1.0000   1.0000   1.0000   1.0000   1.0000   1.0000
     1.0000   1.0000   1.0000   1.0000   1.0000   1.0000   1.0000   1.0000
     1.0000   1.0000   1.0000   1.0000   1.0000   1.0000   1.0000   1.0000
     1.0000   1.0000   1.0000   1.0000   1.0000   1.0000   1.0000   1.0000
     1.0000   1.0000   1.0000   1.0000   1.0000   1.0000   1.0000   1.0000
     1.0000   1.0000   1.0000   1.0000   1.0000   1.0000   1.0000   1.0000
     1.0000   1.0000   1.0000   1.0000   1.0000   1.0000   1.0000   1.0000
     1.0000   1.0000   1.0000   1.0000   1.0000   1.0000   1.0000   1.0000
     1.0000   1.0000   1.0000   1.0000   1.0000   1.0000   1.0000   1.0000
     1.0000   1.0000   1.0000   1.0000   1.0000   1.0000   1.0000   1.0000
     1.0000   1.0000   1.0000   1.0000   1.0000   1.0000   1.0000   1.0000
     1.0000   1.0000   1.0000   1.0000   1.0000   1.0000   1.0000   1.0000
     1.0000   1.0000   1.0000   1.0000   1.0000   1.0000   1.0000   1.0000
     1.0000   1.0000   1.0000   1.0000   1.0000   1.0000   1.0000   1.0000
     1.0000   1.0000   1.0000   1.0000   1.0000   1.0000   1.0000   1.0000
     1.0000   1.0000   1.0000   1.0000   1.0000   1.0000   1.0000   1.0000
     1.0000   1.0000   1.0000   1.0000   1.0000   1.0000   1.0000   1.0000
     1.0000   1.0000   1.0000   1.0000   1.0000   1.0000   1.0000   1.0000
     1.0000   1.0000   1.0000   1.0000   1.0000   1.0000   1.0000   1.0000
     1.0000   1.0000   1.0000   1.0000   1.0000   1.0000   1.0000   1.0000
     1.0000   1.0000   1.0000   1.0000   1.0000   1.0000   1.0000   1.0000
     1.0000   1.0000   1.0000   0.9999   0.9999   0.0003   0.0001   0.0000
     0.0000   0.0000   0.0000   0.0000   0.0000   0.0000   0.0000   0.0000
     0.0000   0.0000   0.0000   0.0000   0.0000   0.0000   0.0000   0.0000
     0.0000   0.0000   0.0000   0.0000   0.0000   0.0000   0.0000   0.0000
     0.0000   0.0000   0.0000   0.0000   0.0000   0.0000   0.0000   0.0000
     0.0000   0.0000   0.0000   0.0000   0.0000   0.0000

     the Fermi energy is     1.1664 ev

!    total energy              =   -2979.42710461 Ry
     estimated scf accuracy    <          9.8E-11 Ry
     smearing contrib. (-TS)   =      -0.00007092 Ry
     internal energy E=F+TS    =   -2979.42703369 Ry

     The total energy is F=E-TS. E is the sum of the following terms:
     one-electron contribution =  -11135.43390155 Ry
     hartree contribution      =    5595.36792107 Ry
     xc contribution           =    -571.47996245 Ry
     ewald contribution        =    3132.11890925 Ry

     total magnetization       =    -0.00 Bohr mag/cell
     absolute magnetization    =     0.00 Bohr mag/cell

     convergence has been achieved in  11 iterations

     negative rho (up, down):  1.433E-03 1.433E-03

     Forces acting on atoms (cartesian axes, Ry/au):

     atom    1 type  1   force =    -0.00027922   -0.00035086    0.00009543
     atom    2 type  1   force =    -0.00044346   -0.00006638    0.00009543
     atom    3 type  1   force =     0.00000000    0.00006667    0.00001208
     atom    4 type  1   force =     0.00005774   -0.00003334    0.00001208
     atom    5 type  1   force =     0.00000000    0.00029425    0.00029753
     atom    6 type  1   force =     0.00027873    0.00016093   -0.00107866
     atom    7 type  1   force =     0.00025483   -0.00014713    0.00029753
     atom    8 type  1   force =    -0.00005774   -0.00003334    0.00001208
     atom    9 type  1   force =     0.00027922   -0.00035086    0.00009543
     atom   10 type  1   force =    -0.00027873    0.00016093   -0.00107866
     atom   11 type  1   force =     0.00000000   -0.00032185   -0.00107866
     atom   12 type  1   force =    -0.00016425    0.00041724    0.00009543
     atom   13 type  1   force =     0.00000000   -0.00000000    0.00077164
     atom   14 type  1   force =     0.00044346   -0.00006638    0.00009543
     atom   15 type  1   force =    -0.00025483   -0.00014713    0.00029753
     atom   16 type  1   force =     0.00016425    0.00041724    0.00009543
     atom   17 type  2   force =     0.00035370    0.00020421    0.00037514
     atom   18 type  2   force =     0.00000000   -0.00008551    0.00009964
     atom   19 type  2   force =    -0.00031815   -0.00018368    0.00000734
     atom   20 type  2   force =    -0.00007405    0.00004275    0.00009964
     atom   21 type  2   force =     0.00010043   -0.00033726   -0.00020518
     atom   22 type  2   force =    -0.00024186    0.00025561   -0.00020518
     atom   23 type  2   force =     0.00031815   -0.00018368    0.00000734
     atom   24 type  2   force =     0.00000000    0.00036737    0.00000734
     atom   25 type  2   force =    -0.00010043   -0.00033726   -0.00020518
     atom   26 type  2   force =    -0.00034229    0.00008165   -0.00020518
     atom   27 type  2   force =     0.00007405    0.00004275    0.00009964
     atom   28 type  2   force =    -0.00035370    0.00020421    0.00037514
     atom   29 type  2   force =     0.00024186    0.00025561   -0.00020518
     atom   30 type  2   force =     0.00034229    0.00008165   -0.00020518
     atom   31 type  2   force =    -0.00000000   -0.00040841    0.00037514
     atom   32 type  2   force =    -0.00006589   -0.00003804    0.00043876
     atom   33 type  2   force =    -0.00000000   -0.00003884    0.00045053
     atom   34 type  2   force =     0.00032735    0.00018900   -0.00018858
     atom   35 type  2   force =    -0.00003363    0.00001942    0.00045053
     atom   36 type  2   force =    -0.00018257   -0.00020069   -0.00025911
     atom   37 type  2   force =    -0.00026509   -0.00005777   -0.00025911
     atom   38 type  2   force =    -0.00032735    0.00018900   -0.00018858
     atom   39 type  2   force =     0.00000000   -0.00037799   -0.00018858
     atom   40 type  2   force =     0.00018257   -0.00020069   -0.00025911
     atom   41 type  2   force =     0.00000000    0.00000000    0.00020016
     atom   42 type  2   force =    -0.00008252    0.00025846   -0.00025911
     atom   43 type  2   force =     0.00003363    0.00001942    0.00045053
     atom   44 type  2   force =     0.00006589   -0.00003804    0.00043876
     atom   45 type  2   force =     0.00026509   -0.00005777   -0.00025911
     atom   46 type  2   force =     0.00008252    0.00025846   -0.00025911
     atom   47 type  2   force =     0.00000000    0.00007608    0.00043876
     The non-local contrib.  to forces
     atom    1 type  1   force =    -0.00094375    0.00614850    0.00069881
     atom    2 type  1   force =     0.00485288   -0.00389157    0.00069881
     atom    3 type  1   force =     0.00000000    0.00091626   -0.00120850
     atom    4 type  1   force =     0.00079350   -0.00045813   -0.00120850
     atom    5 type  1   force =    -0.00000000   -0.00424929    0.00339043
     atom    6 type  1   force =     0.01250848    0.00722177   -0.03046301
     atom    7 type  1   force =    -0.00368000    0.00212465    0.00339043
     atom    8 type  1   force =    -0.00079350   -0.00045813   -0.00120850
     atom    9 type  1   force =     0.00094375    0.00614850    0.00069881
     atom   10 type  1   force =    -0.01250848    0.00722177   -0.03046301
     atom   11 type  1   force =     0.00000000   -0.01444355   -0.03046301
     atom   12 type  1   force =     0.00579664   -0.00225694    0.00069881
     atom   13 type  1   force =     0.00000000   -0.00000000   -0.00211635
     atom   14 type  1   force =    -0.00485288   -0.00389157    0.00069881
     atom   15 type  1   force =     0.00368000    0.00212465    0.00339043
     atom   16 type  1   force =    -0.00579664   -0.00225694    0.00069881
     atom   17 type  2   force =     0.00107141    0.00061858   -0.28355034
     atom   18 type  2   force =     0.00000000   -0.00294428   -0.28105790
     atom   19 type  2   force =    -0.00074958   -0.00043277   -0.28374935
     atom   20 type  2   force =    -0.00254982    0.00147214   -0.28105790
     atom   21 type  2   force =    -0.00985330   -0.00859626   -0.26791755
     atom   22 type  2   force =    -0.01237123   -0.00423508   -0.26791755
     atom   23 type  2   force =     0.00074958   -0.00043277   -0.28374935
     atom   24 type  2   force =     0.00000000    0.00086554   -0.28374935
     atom   25 type  2   force =     0.00985330   -0.00859626   -0.26791755
     atom   26 type  2   force =    -0.00251793    0.01283134   -0.26791755
     atom   27 type  2   force =     0.00254982    0.00147214   -0.28105790
     atom   28 type  2   force =    -0.00107141    0.00061858   -0.28355034
     atom   29 type  2   force =     0.01237123   -0.00423508   -0.26791755
     atom   30 type  2   force =     0.00251793    0.01283134   -0.26791755
     atom   31 type  2   force =    -0.00000000   -0.00123716   -0.28355034
     atom   32 type  2   force =     0.00086666    0.00050037    0.28060557
     atom   33 type  2   force =     0.00000000    0.00306531    0.28191235
     atom   34 type  2   force =     0.00060226    0.00034772    0.28004670
     atom   35 type  2   force =     0.00265463   -0.00153265    0.28191235
     atom   36 type  2   force =     0.00389843    0.00185493    0.28080546
     atom   37 type  2   force =     0.00355563    0.00244867    0.28080546
     atom   38 type  2   force =    -0.00060226    0.00034772    0.28004670
     atom   39 type  2   force =    -0.00000000   -0.00069543    0.28004670
     atom   40 type  2   force =    -0.00389843    0.00185493    0.28080546
     atom   41 type  2   force =     0.00000000    0.00000000    0.28155567
     atom   42 type  2   force =    -0.00034279   -0.00430360    0.28080546
     atom   43 type  2   force =    -0.00265463   -0.00153265    0.28191235
     atom   44 type  2   force =    -0.00086666    0.00050037    0.28060557
     atom   45 type  2   force =    -0.00355563    0.00244867    0.28080546
     atom   46 type  2   force =     0.00034279   -0.00430360    0.28080546
     atom   47 type  2   force =     0.00000000   -0.00100073    0.28060557
     The ionic contribution  to forces
     atom    1 type  1   force =     0.69234930    0.31027327    1.55686223
     atom    2 type  1   force =     0.61485940    0.44448957    1.55685891
     atom    3 type  1   force =     0.00003139    0.12240946    0.66733986
     atom    4 type  1   force =     0.10602714   -0.06121622    0.66734103
     atom    5 type  1   force =     0.00001842    0.57474035    0.47935631
     atom    6 type  1   force =     3.49848702    2.01985862    3.50594795
     atom    7 type  1   force =     0.49769112   -0.28734690    0.47935415
     atom    8 type  1   force =    -0.10599684   -0.06122842    0.66734328
     atom    9 type  1   force =    -0.69235475    0.31028872    1.55685852
     atom   10 type  1   force =    -3.49842117    2.01984328    3.50594268
     atom   11 type  1   force =     0.00001257   -4.03971329    3.50595120
     atom   12 type  1   force =    -0.07751410   -0.75472545    1.55685616
     atom   13 type  1   force =    -0.00001790    0.00001902    1.21905513
     atom   14 type  1   force =    -0.61491407    0.44447436    1.55685781
     atom   15 type  1   force =    -0.49774157   -0.28741488    0.47935931
     atom   16 type  1   force =     0.07748855   -0.75474055    1.55685302
     atom   17 type  2   force =     0.30102558    0.17379249   32.59417584
     atom   18 type  2   force =     0.00000342    0.06161838   32.47578283
     atom   19 type  2   force =    -0.25392975   -0.14661129   32.20618869
     atom   20 type  2   force =     0.05335548   -0.03080289   32.47580142
     atom   21 type  2   force =     0.57858870    1.25178875   32.43214687
     atom   22 type  2   force =     1.37337422   -0.12481477   32.43213977
     atom   23 type  2   force =     0.25393214   -0.14661321   32.20617243
     atom   24 type  2   force =     0.00000270    0.29320976   32.20618742
     atom   25 type  2   force =    -0.57858115    1.25180788   32.43213815
     atom   26 type  2   force =     0.79478349   -1.12697215   32.43213978
     atom   27 type  2   force =    -0.05335969   -0.03081017   32.47578103
     atom   28 type  2   force =    -0.30102750    0.17379562   32.59416688
     atom   29 type  2   force =    -1.37338741   -0.12482746   32.43212555
     atom   30 type  2   force =    -0.79478292   -1.12697661   32.43214222
     atom   31 type  2   force =    -0.00000087   -0.34758829   32.59418282
     atom   32 type  2   force =    -0.04724538   -0.02727981  -31.91727479
     atom   33 type  2   force =     0.00000312   -0.02645882  -31.91300500
     atom   34 type  2   force =     0.00302006    0.00173623  -31.92147531
     atom   35 type  2   force =    -0.02292198    0.01323140  -31.91302860
     atom   36 type  2   force =    -0.07983536   -0.16464314  -31.97821788
     atom   37 type  2   force =    -0.18250596    0.01318936  -31.97821033
     atom   38 type  2   force =    -0.00301279    0.00173411  -31.92145965
     atom   39 type  2   force =     0.00000320   -0.00348579  -31.92147394
     atom   40 type  2   force =     0.07984113   -0.16462007  -31.97821194
     atom   41 type  2   force =     0.00001391   -0.00000267  -31.81488176
     atom   42 type  2   force =    -0.10267524    0.15145769  -31.97821066
     atom   43 type  2   force =     0.02291795    0.01322820  -31.91300317
     atom   44 type  2   force =     0.04724132   -0.02727719  -31.91726090
     atom   45 type  2   force =     0.18248612    0.01317500  -31.97819934
     atom   46 type  2   force =     0.10267038    0.15145315  -31.97821386
     atom   47 type  2   force =    -0.00000142    0.05455538  -31.91728211
     The local contribution  to forces
     atom    1 type  1   force =    -0.69205925   -0.31647286   -1.55756144
     atom    2 type  1   force =    -0.62021560   -0.44105326   -1.55756105
     atom    3 type  1   force =     0.00013501   -0.12336623   -0.66611176
     atom    4 type  1   force =    -0.10672282    0.06153211   -0.66611108
     atom    5 type  1   force =     0.00006548   -0.57010405   -0.48210406
     atom    6 type  1   force =    -3.51047870   -2.02670905   -3.47966801
     atom    7 type  1   force =    -0.49382162    0.28504866   -0.48210429
     atom    8 type  1   force =     0.10685434    0.06153228   -0.66611149
     atom    9 type  1   force =     0.69205393   -0.31661013   -1.55756071
     atom   10 type  1   force =     3.51061354   -2.02684762   -3.47967459
     atom   11 type  1   force =    -0.00007001    4.05341074   -3.47966142
     atom   12 type  1   force =     0.07177375    0.75751724   -1.55756097
     atom   13 type  1   force =    -0.00014152    0.00004729   -1.21630250
     atom   14 type  1   force =     0.62007131   -0.44105317   -1.55756014
     atom   15 type  1   force =     0.49367695    0.28477228   -0.48210213
     atom   16 type  1   force =    -0.07191755    0.75737809   -1.55756073
     atom   17 type  2   force =    -0.30168269   -0.17418698  -32.32484424
     atom   18 type  2   force =    -0.00000010   -0.05894634  -32.20910353
     atom   19 type  2   force =     0.25427850    0.14680796  -31.93705820
     atom   20 type  2   force =    -0.05105393    0.02947869  -32.20912007
     atom   21 type  2   force =    -0.56926538   -1.24404406  -32.17814070
     atom   22 type  2   force =    -1.36200140    0.12902482  -32.17812470
     atom   23 type  2   force =    -0.25428596    0.14680855  -31.93705809
     atom   24 type  2   force =    -0.00000006   -0.29362555  -31.93705793
     atom   25 type  2   force =     0.56926450   -1.24401928  -32.17815624
     atom   26 type  2   force =    -0.79273175    1.11500987  -32.17812451
     atom   27 type  2   force =     0.05104709    0.02947202  -32.20910351
     atom   28 type  2   force =     0.30168241   -0.17417915  -32.32484426
     atom   29 type  2   force =     1.36198553    0.12901785  -32.17815646
     atom   30 type  2   force =     0.79273972    1.11500990  -32.17814065
     atom   31 type  2   force =     0.00000342    0.34835733  -32.32484448
     atom   32 type  2   force =     0.04634708    0.02674852   31.65150996
     atom   33 type  2   force =     0.00000023    0.02350897   31.64604257
     atom   34 type  2   force =    -0.00325221   -0.00188195   31.65565310
     atom   35 type  2   force =     0.02035369   -0.01175428   31.64607569
     atom   36 type  2   force =     0.07593428    0.16261452   31.71157187
     atom   37 type  2   force =     0.17879754   -0.01554511   31.71155538
     atom   38 type  2   force =     0.00325270   -0.00188195   31.65565307
     atom   39 type  2   force =     0.00000023    0.00375671   31.65565290
     atom   40 type  2   force =    -0.07593345    0.16263629   31.71158873
     atom   41 type  2   force =     0.00001093   -0.00000640   31.54780884
     atom   42 type  2   force =     0.10285981   -0.14707530   31.71155487
     atom   43 type  2   force =    -0.02036058   -0.01175432   31.64604206
     atom   44 type  2   force =    -0.04634652    0.02675587   31.65149313
     atom   45 type  2   force =    -0.17881148   -0.01555276   31.71158881
     atom   46 type  2   force =    -0.10285936   -0.14707531   31.71157154
     atom   47 type  2   force =     0.00000395   -0.05351771   31.65150969
     The core correction contribution to forces
     atom    1 type  1   force =     0.00029717   -0.00024301    0.00009551
     atom    2 type  1   force =    -0.00006129    0.00037964    0.00009552
     atom    3 type  1   force =    -0.00000167    0.00002819   -0.00001326
     atom    4 type  1   force =     0.00002221   -0.00001119   -0.00001325
     atom    5 type  1   force =    -0.00000085   -0.00012129   -0.00034929
     atom    6 type  1   force =    -0.00023325   -0.00013454    0.00309736
     atom    7 type  1   force =    -0.00010469    0.00006194   -0.00034933
     atom    8 type  1   force =    -0.00002392   -0.00001115   -0.00001324
     atom    9 type  1   force =    -0.00029728   -0.00024136    0.00009547
     atom   10 type  1   force =     0.00023146   -0.00013292    0.00309730
     atom   11 type  1   force =     0.00000071    0.00027161    0.00309731
     atom   12 type  1   force =    -0.00035771   -0.00013410    0.00009541
     atom   13 type  1   force =     0.00000152    0.00000024    0.00012945
     atom   14 type  1   force =     0.00006276    0.00037966    0.00009547
     atom   15 type  1   force =     0.00010617    0.00006510   -0.00034937
     atom   16 type  1   force =     0.00035921   -0.00013254    0.00009542
     atom   17 type  2   force =    -0.00005638   -0.00003047    0.01459554
     atom   18 type  2   force =     0.00000008    0.00019445    0.01447644
     atom   19 type  2   force =     0.00008033    0.00004729    0.01462835
     atom   20 type  2   force =     0.00016823   -0.00009664    0.01447735
     atom   21 type  2   force =     0.00062628    0.00049822    0.01371246
     atom   22 type  2   force =     0.00074355    0.00029456    0.01371156
     atom   23 type  2   force =    -0.00007930    0.00004729    0.01462834
     atom   24 type  2   force =     0.00000008   -0.00009082    0.01462834
     atom   25 type  2   force =    -0.00062611    0.00049566    0.01371339
     atom   26 type  2   force =     0.00011692   -0.00078910    0.01371157
     atom   27 type  2   force =    -0.00016724   -0.00009576    0.01447643
     atom   28 type  2   force =     0.00005655   -0.00003132    0.01459554
     atom   29 type  2   force =    -0.00074168    0.00029542    0.01371341
     atom   30 type  2   force =    -0.00011760   -0.00078911    0.01371248
     atom   31 type  2   force =    -0.00000035    0.00006546    0.01459554
     atom   32 type  2   force =    -0.00003395   -0.00001749   -0.01440112
     atom   33 type  2   force =     0.00000010   -0.00014663   -0.01450403
     atom   34 type  2   force =    -0.00003598   -0.00001936   -0.01441830
     atom   35 type  2   force =    -0.00012711    0.00007482   -0.01450586
     atom   36 type  2   force =    -0.00018439   -0.00003931   -0.01442862
     atom   37 type  2   force =    -0.00012733   -0.00013874   -0.01442770
     atom   38 type  2   force =     0.00003619   -0.00001937   -0.01441829
     atom   39 type  2   force =     0.00000010    0.00004258   -0.01441829
     atom   40 type  2   force =     0.00018461   -0.00004184   -0.01442954
     atom   41 type  2   force =    -0.00000118    0.00000181   -0.01428787
     atom   42 type  2   force =     0.00005756    0.00018181   -0.01442772
     atom   43 type  2   force =     0.00012815    0.00007482   -0.01450404
     atom   44 type  2   force =     0.00003414   -0.00001832   -0.01440021
     atom   45 type  2   force =     0.00012922   -0.00013791   -0.01442955
     atom   46 type  2   force =    -0.00005737    0.00018181   -0.01442864
     atom   47 type  2   force =    -0.00000032    0.00004043   -0.01440114
     The Hubbard contrib.    to forces
     atom    1 type  1   force =     0.00000000    0.00000000    0.00000000
     atom    2 type  1   force =     0.00000000    0.00000000    0.00000000
     atom    3 type  1   force =     0.00000000    0.00000000    0.00000000
     atom    4 type  1   force =     0.00000000    0.00000000    0.00000000
     atom    5 type  1   force =     0.00000000    0.00000000    0.00000000
     atom    6 type  1   force =     0.00000000    0.00000000    0.00000000
     atom    7 type  1   force =     0.00000000    0.00000000    0.00000000
     atom    8 type  1   force =     0.00000000    0.00000000    0.00000000
     atom    9 type  1   force =     0.00000000    0.00000000    0.00000000
     atom   10 type  1   force =     0.00000000    0.00000000    0.00000000
     atom   11 type  1   force =     0.00000000    0.00000000    0.00000000
     atom   12 type  1   force =     0.00000000    0.00000000    0.00000000
     atom   13 type  1   force =     0.00000000    0.00000000    0.00000000
     atom   14 type  1   force =     0.00000000    0.00000000    0.00000000
     atom   15 type  1   force =     0.00000000    0.00000000    0.00000000
     atom   16 type  1   force =     0.00000000    0.00000000    0.00000000
     atom   17 type  2   force =     0.00000000    0.00000000    0.00000000
     atom   18 type  2   force =     0.00000000    0.00000000    0.00000000
     atom   19 type  2   force =     0.00000000    0.00000000    0.00000000
     atom   20 type  2   force =     0.00000000    0.00000000    0.00000000
     atom   21 type  2   force =     0.00000000    0.00000000    0.00000000
     atom   22 type  2   force =     0.00000000    0.00000000    0.00000000
     atom   23 type  2   force =     0.00000000    0.00000000    0.00000000
     atom   24 type  2   force =     0.00000000    0.00000000    0.00000000
     atom   25 type  2   force =     0.00000000    0.00000000    0.00000000
     atom   26 type  2   force =     0.00000000    0.00000000    0.00000000
     atom   27 type  2   force =     0.00000000    0.00000000    0.00000000
     atom   28 type  2   force =     0.00000000    0.00000000    0.00000000
     atom   29 type  2   force =     0.00000000    0.00000000    0.00000000
     atom   30 type  2   force =     0.00000000    0.00000000    0.00000000
     atom   31 type  2   force =     0.00000000    0.00000000    0.00000000
     atom   32 type  2   force =     0.00000000    0.00000000    0.00000000
     atom   33 type  2   force =     0.00000000    0.00000000    0.00000000
     atom   34 type  2   force =     0.00000000    0.00000000    0.00000000
     atom   35 type  2   force =     0.00000000    0.00000000    0.00000000
     atom   36 type  2   force =     0.00000000    0.00000000    0.00000000
     atom   37 type  2   force =     0.00000000    0.00000000    0.00000000
     atom   38 type  2   force =     0.00000000    0.00000000    0.00000000
     atom   39 type  2   force =     0.00000000    0.00000000    0.00000000
     atom   40 type  2   force =     0.00000000    0.00000000    0.00000000
     atom   41 type  2   force =     0.00000000    0.00000000    0.00000000
     atom   42 type  2   force =     0.00000000    0.00000000    0.00000000
     atom   43 type  2   force =     0.00000000    0.00000000    0.00000000
     atom   44 type  2   force =     0.00000000    0.00000000    0.00000000
     atom   45 type  2   force =     0.00000000    0.00000000    0.00000000
     atom   46 type  2   force =     0.00000000    0.00000000    0.00000000
     atom   47 type  2   force =     0.00000000    0.00000000    0.00000000
     The SCF correction term to forces
     atom    1 type  1   force =    -0.00000314    0.00000467    0.00000314
     atom    2 type  1   force =     0.00000248   -0.00000505    0.00000314
     atom    3 type  1   force =     0.00000000   -0.00000545    0.00000280
     atom    4 type  1   force =    -0.00000471    0.00000272    0.00000280
     atom    5 type  1   force =    -0.00000000    0.00000673    0.00000225
     atom    6 type  1   force =     0.00000333    0.00000193    0.00000667
     atom    7 type  1   force =     0.00000583   -0.00000336    0.00000225
     atom    8 type  1   force =     0.00000471    0.00000272    0.00000281
     atom    9 type  1   force =     0.00000314    0.00000467    0.00000314
     atom   10 type  1   force =    -0.00000333    0.00000192    0.00000667
     atom   11 type  1   force =    -0.00000000   -0.00000385    0.00000667
     atom   12 type  1   force =     0.00000561    0.00000038    0.00000314
     atom   13 type  1   force =     0.00000000   -0.00000000    0.00000483
     atom   14 type  1   force =    -0.00000248   -0.00000505    0.00000314
     atom   15 type  1   force =    -0.00000583   -0.00000337    0.00000225
     atom   16 type  1   force =    -0.00000561    0.00000038    0.00000314
     atom   17 type  2   force =     0.00000064    0.00000037   -0.00000200
     atom   18 type  2   force =    -0.00000000   -0.00000135    0.00000032
     atom   19 type  2   force =    -0.00000060   -0.00000035    0.00000248
     atom   20 type  2   force =    -0.00000117    0.00000068    0.00000032
     atom   21 type  2   force =    -0.00000184    0.00000155    0.00000063
     atom   22 type  2   force =     0.00000042   -0.00000237    0.00000063
     atom   23 type  2   force =     0.00000060   -0.00000035    0.00000248
     atom   24 type  2   force =    -0.00000000    0.00000070    0.00000248
     atom   25 type  2   force =     0.00000184    0.00000155    0.00000063
     atom   26 type  2   force =     0.00000227    0.00000082    0.00000063
     atom   27 type  2   force =     0.00000117    0.00000068    0.00000032
     atom   28 type  2   force =    -0.00000064    0.00000037   -0.00000200
     atom   29 type  2   force =    -0.00000042   -0.00000237    0.00000063
     atom   30 type  2   force =    -0.00000227    0.00000082    0.00000063
     atom   31 type  2   force =    -0.00000000   -0.00000074   -0.00000200
     atom   32 type  2   force =     0.00000107    0.00000062    0.00000127
     atom   33 type  2   force =     0.00000000   -0.00000187    0.00000056
     atom   34 type  2   force =    -0.00000039   -0.00000022   -0.00000146
     atom   35 type  2   force =    -0.00000162    0.00000093    0.00000056
     atom   36 type  2   force =    -0.00000063    0.00000162    0.00000178
     atom   37 type  2   force =     0.00000109   -0.00000135    0.00000178
     atom   38 type  2   force =     0.00000039   -0.00000022   -0.00000146
     atom   39 type  2   force =     0.00000000    0.00000045   -0.00000146
     atom   40 type  2   force =     0.00000063    0.00000162    0.00000178
     atom   41 type  2   force =    -0.00000000    0.00000000    0.00000419
     atom   42 type  2   force =     0.00000172   -0.00000027    0.00000178
     atom   43 type  2   force =     0.00000162    0.00000093    0.00000056
     atom   44 type  2   force =    -0.00000107    0.00000062    0.00000127
     atom   45 type  2   force =    -0.00000109   -0.00000135    0.00000178
     atom   46 type  2   force =    -0.00000172   -0.00000027    0.00000178
     atom   47 type  2   force =    -0.00000000   -0.00000124    0.00000127

     Total force =     0.003347     Total SCF correction =     0.000030
     Energy error            =      2.1E-05 Ry
     Gradient error          =      1.1E-03 Ry/Bohr

     number of scf cycles    =   5
     number of bfgs steps    =   4

     energy             old  =   -2979.4270838965 Ry
     energy             new  =   -2979.4271046073 Ry

     CASE: energy            _new < energy            _old

     new trust radius        =       0.0037414772 bohr
     new conv_thr            =            1.0E-10 Ry


ATOMIC_POSITIONS (angstrom)
Mo               1.6010626848        0.9306576159       11.1771792648
Mo               0.0113477601        3.6841256652       11.1771792648
Mo              -1.5951590000        6.4411101514       11.1666756593
Mo              -3.1952038503        9.2124704243       11.1666756593
Mo               4.7854730000        0.9539670518       11.1446041344
Mo               3.2314652176        3.7076160893       11.1117846737
Mo               1.6237396151        6.4302519742       11.1446041344
Mo               0.0048868503        9.2124704243       11.1666756593
Mo               7.9698843152        0.9306586159       11.1771792648
Mo               6.3394807824        3.7076170893       11.1117846737
Mo               4.7854740000        6.3992388214       11.1117846737
Mo               3.1957590751        9.1996877189       11.1771792648
Mo              11.1661060000        0.9209640000       11.1863274855
Mo               9.5596002399        3.6841256652       11.1771792648
Mo               7.9472083849        6.4302539742       11.1446041344
Mo               6.3751889249        9.1996887189       11.1771792648
S                0.0074699774        1.8462437934       12.7420657345
S               -1.5951580000        4.6090913502       12.7343575266
S               -3.2081725995        7.3574089100       12.7116630642
S               -4.7817773663       10.1284783249       12.7343585266
S                3.2336752532        1.9099382795       12.7058217968
S                1.6757345240        4.6083700751       12.7058207968
S                0.0178575995        7.3574089100       12.7116630642
S               -1.5951580000       10.1512331798       12.7116630642
S                6.3372717468        1.9099352795       12.7058227968
S                3.2275322709        7.2961646454       12.7058207968
S                1.5914623663       10.1284793249       12.7343575266
S                9.5634770226        1.8462427934       12.7420657345
S                7.8952144760        4.6083710751       12.7058227968
S                6.3434137291        7.2961646454       12.7058217968
S                4.7854730000       10.1219864130       12.7420657345
S               -0.0016945187        1.8409526692        9.6255227732
S               -1.5951580000        4.5944665314        9.6169626350
S               -3.1942994463        7.3654191562        9.6076290994
S               -4.7944428308       10.1357917342        9.6169606350
S                3.1747647443        1.8611965536        9.5844357505
S                1.6040676969        4.5817229407        9.5844367505
S                0.0039834463        7.3654191562        9.6076290994
S               -1.5951580000       10.1352126875        9.6076290994
S                6.3961822557        1.8611935536        9.5844347505
S                4.7854720000        4.6048250000        9.5500437409
S                3.2147769525        7.3715535057        9.5844367505
S                1.6041278308       10.1357917342        9.6169626350
S                9.5726415187        1.8409516692        9.6255237732
S                7.9668813031        4.5817239407        9.5844347505
S                6.3561700475        7.3715535057        9.5844357505
S                4.7854730000       10.1325696617        9.6255227732



     Writing config-only to output data dir /home/nihal/Desktop/Otptf/Trial_4.save/ :
     XML data file
     NEW-OLD atomic charge density approx. for the potential

     negative rho (up, down):  1.433E-03 1.433E-03
     Generating pointlists ...

     total cpu time spent up to now is    14874.2 secs

     Self-consistent Calculation

     iteration #  1     ecut=    65.00 Ry     beta= 0.30
     Davidson diagonalization with overlap

---- Real-time Memory Report at c_bands before calling an iterative solver
          2764 MiB given to the printing process from OS
             0 MiB allocation reported by mallinfo(arena+hblkhd)
         14199 MiB available memory on the node where the printing process lives
------------------
     ethr =  1.00E-06,  avg # of iterations =  3.0

     Threshold (ethr) on eigenvalues was too large:
     Diagonalizing with lowered threshold

     Davidson diagonalization with overlap

---- Real-time Memory Report at c_bands before calling an iterative solver
          2764 MiB given to the printing process from OS
             0 MiB allocation reported by mallinfo(arena+hblkhd)
         14920 MiB available memory on the node where the printing process lives
------------------
     ethr =  2.29E-09,  avg # of iterations =  5.0

     negative rho (up, down):  1.433E-03 1.433E-03

     total cpu time spent up to now is    15470.6 secs

     total energy              =   -2979.42712405 Ry
     estimated scf accuracy    <       0.00000755 Ry

     total magnetization       =    -0.00 Bohr mag/cell
     absolute magnetization    =     0.00 Bohr mag/cell

     iteration #  2     ecut=    65.00 Ry     beta= 0.30
     Davidson diagonalization with overlap

---- Real-time Memory Report at c_bands before calling an iterative solver
          2764 MiB given to the printing process from OS
             0 MiB allocation reported by mallinfo(arena+hblkhd)
         14257 MiB available memory on the node where the printing process lives
------------------
     ethr =  1.84E-09,  avg # of iterations =  2.9

     negative rho (up, down):  1.433E-03 1.433E-03

     total cpu time spent up to now is    15676.7 secs

     total energy              =   -2979.42712388 Ry
     estimated scf accuracy    <       0.00001096 Ry

     total magnetization       =     0.00 Bohr mag/cell
     absolute magnetization    =     0.00 Bohr mag/cell

     iteration #  3     ecut=    65.00 Ry     beta= 0.30
     Davidson diagonalization with overlap

---- Real-time Memory Report at c_bands before calling an iterative solver
          2764 MiB given to the printing process from OS
             0 MiB allocation reported by mallinfo(arena+hblkhd)
         14110 MiB available memory on the node where the printing process lives
------------------
     ethr =  1.84E-09,  avg # of iterations =  2.4

     negative rho (up, down):  1.433E-03 1.433E-03

     total cpu time spent up to now is    15857.6 secs

     total energy              =   -2979.42712490 Ry
     estimated scf accuracy    <       0.00000210 Ry

     total magnetization       =     0.00 Bohr mag/cell
     absolute magnetization    =     0.00 Bohr mag/cell

     iteration #  4     ecut=    65.00 Ry     beta= 0.30
     Davidson diagonalization with overlap

---- Real-time Memory Report at c_bands before calling an iterative solver
          2764 MiB given to the printing process from OS
             0 MiB allocation reported by mallinfo(arena+hblkhd)
         14058 MiB available memory on the node where the printing process lives
------------------
     ethr =  5.13E-10,  avg # of iterations =  2.0

     negative rho (up, down):  1.433E-03 1.433E-03

     total cpu time spent up to now is    16034.1 secs

     total energy              =   -2979.42712498 Ry
     estimated scf accuracy    <       0.00000059 Ry

     total magnetization       =     0.00 Bohr mag/cell
     absolute magnetization    =     0.00 Bohr mag/cell

     iteration #  5     ecut=    65.00 Ry     beta= 0.30
     Davidson diagonalization with overlap

---- Real-time Memory Report at c_bands before calling an iterative solver
          2764 MiB given to the printing process from OS
             0 MiB allocation reported by mallinfo(arena+hblkhd)
         13720 MiB available memory on the node where the printing process lives
------------------
     ethr =  1.43E-10,  avg # of iterations =  2.1

     negative rho (up, down):  1.433E-03 1.433E-03

     total cpu time spent up to now is    16222.1 secs

     total energy              =   -2979.42712502 Ry
     estimated scf accuracy    <       0.00000036 Ry

     total magnetization       =     0.00 Bohr mag/cell
     absolute magnetization    =     0.00 Bohr mag/cell

     iteration #  6     ecut=    65.00 Ry     beta= 0.30
     Davidson diagonalization with overlap

---- Real-time Memory Report at c_bands before calling an iterative solver
          2764 MiB given to the printing process from OS
             0 MiB allocation reported by mallinfo(arena+hblkhd)
         13654 MiB available memory on the node where the printing process lives
------------------
     ethr =  8.77E-11,  avg # of iterations =  2.0

     negative rho (up, down):  1.433E-03 1.433E-03

     total cpu time spent up to now is    16398.0 secs

     total energy              =   -2979.42712505 Ry
     estimated scf accuracy    <       0.00000003 Ry

     total magnetization       =     0.00 Bohr mag/cell
     absolute magnetization    =     0.00 Bohr mag/cell

     iteration #  7     ecut=    65.00 Ry     beta= 0.30
     Davidson diagonalization with overlap

---- Real-time Memory Report at c_bands before calling an iterative solver
          2764 MiB given to the printing process from OS
             0 MiB allocation reported by mallinfo(arena+hblkhd)
         13599 MiB available memory on the node where the printing process lives
------------------
     ethr =  7.33E-12,  avg # of iterations =  3.1

     negative rho (up, down):  1.433E-03 1.433E-03

     total cpu time spent up to now is    16626.2 secs

     total energy              =   -2979.42712506 Ry
     estimated scf accuracy    <       0.00000002 Ry

     total magnetization       =     0.00 Bohr mag/cell
     absolute magnetization    =     0.00 Bohr mag/cell

     iteration #  8     ecut=    65.00 Ry     beta= 0.30
     Davidson diagonalization with overlap

---- Real-time Memory Report at c_bands before calling an iterative solver
          2764 MiB given to the printing process from OS
             0 MiB allocation reported by mallinfo(arena+hblkhd)
         13459 MiB available memory on the node where the printing process lives
------------------
     ethr =  5.77E-12,  avg # of iterations =  2.0

     negative rho (up, down):  1.433E-03 1.433E-03

     total cpu time spent up to now is    16811.6 secs

     total energy              =   -2979.42712506 Ry
     estimated scf accuracy    <       0.00000001 Ry

     total magnetization       =     0.00 Bohr mag/cell
     absolute magnetization    =     0.00 Bohr mag/cell

     iteration #  9     ecut=    65.00 Ry     beta= 0.30
     Davidson diagonalization with overlap

---- Real-time Memory Report at c_bands before calling an iterative solver
          2764 MiB given to the printing process from OS
             0 MiB allocation reported by mallinfo(arena+hblkhd)
         13739 MiB available memory on the node where the printing process lives
------------------
     ethr =  2.81E-12,  avg # of iterations =  1.3

     negative rho (up, down):  1.433E-03 1.433E-03

     total cpu time spent up to now is    16985.3 secs

     total energy              =   -2979.42712506 Ry
     estimated scf accuracy    <          1.9E-09 Ry

     total magnetization       =     0.00 Bohr mag/cell
     absolute magnetization    =     0.00 Bohr mag/cell

     iteration # 10     ecut=    65.00 Ry     beta= 0.30
     Davidson diagonalization with overlap

---- Real-time Memory Report at c_bands before calling an iterative solver
          2764 MiB given to the printing process from OS
             0 MiB allocation reported by mallinfo(arena+hblkhd)
         13392 MiB available memory on the node where the printing process lives
------------------
     ethr =  4.68E-13,  avg # of iterations =  3.0

     negative rho (up, down):  1.433E-03 1.433E-03

     total cpu time spent up to now is    17208.7 secs

     total energy              =   -2979.42712506 Ry
     estimated scf accuracy    <          9.1E-10 Ry

     total magnetization       =     0.00 Bohr mag/cell
     absolute magnetization    =     0.00 Bohr mag/cell

     iteration # 11     ecut=    65.00 Ry     beta= 0.30
     Davidson diagonalization with overlap

---- Real-time Memory Report at c_bands before calling an iterative solver
          2764 MiB given to the printing process from OS
             0 MiB allocation reported by mallinfo(arena+hblkhd)
         13680 MiB available memory on the node where the printing process lives
------------------
     ethr =  2.22E-13,  avg # of iterations =  2.0

     negative rho (up, down):  1.433E-03 1.433E-03

     total cpu time spent up to now is    17392.0 secs

     total energy              =   -2979.42712506 Ry
     estimated scf accuracy    <          2.1E-10 Ry

     total magnetization       =     0.00 Bohr mag/cell
     absolute magnetization    =     0.00 Bohr mag/cell

     iteration # 12     ecut=    65.00 Ry     beta= 0.30
     Davidson diagonalization with overlap

---- Real-time Memory Report at c_bands before calling an iterative solver
          2764 MiB given to the printing process from OS
             0 MiB allocation reported by mallinfo(arena+hblkhd)
         13411 MiB available memory on the node where the printing process lives
------------------
     ethr =  1.00E-13,  avg # of iterations =  2.0

     negative rho (up, down):  1.433E-03 1.433E-03

     Magnetic moment per site  (integrated on atomic sphere of radius R)
     atom   1 (R=0.077)  charge= 10.6266  magn=  0.0000
     atom   2 (R=0.077)  charge= 10.6266  magn=  0.0000
     atom   3 (R=0.077)  charge= 10.6267  magn= -0.0000
     atom   4 (R=0.077)  charge= 10.6267  magn= -0.0000
     atom   5 (R=0.077)  charge= 10.6291  magn=  0.0000
     atom   6 (R=0.077)  charge= 10.6197  magn=  0.0000
     atom   7 (R=0.077)  charge= 10.6291  magn=  0.0000
     atom   8 (R=0.077)  charge= 10.6267  magn= -0.0000
     atom   9 (R=0.077)  charge= 10.6266  magn=  0.0000
     atom  10 (R=0.077)  charge= 10.6197  magn=  0.0000
     atom  11 (R=0.077)  charge= 10.6197  magn=  0.0000
     atom  12 (R=0.077)  charge= 10.6266  magn=  0.0000
     atom  13 (R=0.077)  charge= 10.6293  magn=  0.0000
     atom  14 (R=0.077)  charge= 10.6266  magn=  0.0000
     atom  15 (R=0.077)  charge= 10.6291  magn=  0.0000
     atom  16 (R=0.077)  charge= 10.6266  magn=  0.0000
     atom  17 (R=0.077)  charge=  4.0459  magn= -0.0000
     atom  18 (R=0.077)  charge=  4.0439  magn= -0.0000
     atom  19 (R=0.077)  charge=  4.0444  magn= -0.0000
     atom  20 (R=0.077)  charge=  4.0439  magn= -0.0000
     atom  21 (R=0.077)  charge=  4.0468  magn= -0.0000
     atom  22 (R=0.077)  charge=  4.0468  magn= -0.0000
     atom  23 (R=0.077)  charge=  4.0444  magn= -0.0000
     atom  24 (R=0.077)  charge=  4.0444  magn= -0.0000
     atom  25 (R=0.077)  charge=  4.0468  magn= -0.0000
     atom  26 (R=0.077)  charge=  4.0468  magn= -0.0000
     atom  27 (R=0.077)  charge=  4.0439  magn= -0.0000
     atom  28 (R=0.077)  charge=  4.0459  magn= -0.0000
     atom  29 (R=0.077)  charge=  4.0468  magn= -0.0000
     atom  30 (R=0.077)  charge=  4.0468  magn= -0.0000
     atom  31 (R=0.077)  charge=  4.0459  magn= -0.0000
     atom  32 (R=0.077)  charge=  4.0496  magn= -0.0000
     atom  33 (R=0.077)  charge=  4.0465  magn=  0.0000
     atom  34 (R=0.077)  charge=  4.0465  magn=  0.0000
     atom  35 (R=0.077)  charge=  4.0465  magn=  0.0000
     atom  36 (R=0.077)  charge=  4.0437  magn= -0.0000
     atom  37 (R=0.077)  charge=  4.0437  magn= -0.0000
     atom  38 (R=0.077)  charge=  4.0465  magn=  0.0000
     atom  39 (R=0.077)  charge=  4.0465  magn=  0.0000
     atom  40 (R=0.077)  charge=  4.0437  magn= -0.0000
     atom  41 (R=0.077)  charge=  4.0731  magn= -0.0000
     atom  42 (R=0.077)  charge=  4.0437  magn= -0.0000
     atom  43 (R=0.077)  charge=  4.0465  magn=  0.0000
     atom  44 (R=0.077)  charge=  4.0496  magn= -0.0000
     atom  45 (R=0.077)  charge=  4.0437  magn= -0.0000
     atom  46 (R=0.077)  charge=  4.0437  magn= -0.0000
     atom  47 (R=0.077)  charge=  4.0496  magn= -0.0000

     total cpu time spent up to now is    17568.6 secs

     End of self-consistent calculation

 ------ SPIN UP ------------


          k = 0.0000 0.0000 0.0000 (126355 PWs)   bands (ev):

   -60.3634 -60.3560 -60.3559 -60.3448 -60.3379 -60.3378 -60.3322 -60.3096
   -60.3095 -60.3076 -60.3000 -60.2999 -60.2965 -60.2915 -60.2755 -60.2754
   -34.6615 -34.6615 -34.6172 -34.5969 -34.5894 -34.5894 -34.5648 -34.5648
   -34.5255 -34.4864 -34.4753 -34.4745 -34.4744 -34.4724 -34.4724 -34.4521
   -34.4521 -34.4506 -34.4482 -34.4392 -34.4353 -34.4323 -34.4322 -34.4294
   -34.4294 -34.4051 -34.4050 -34.4005 -34.4004 -34.3972 -34.3863 -34.3863
   -34.3856 -34.3853 -34.3773 -34.3772 -34.3672 -34.3671 -34.3563 -34.3561
   -34.3373 -34.3373 -34.3346 -34.3059 -34.2934 -34.2934 -34.2153 -34.2151
   -13.4635 -12.7102 -12.7101 -12.6861 -12.6726 -12.6726 -12.5511 -12.1697
   -11.8947 -11.8947 -11.8474 -11.8459 -11.8459 -11.8117 -11.7195 -11.7195
   -11.7095 -11.7094 -11.6942 -11.6754 -11.6753 -11.6682 -11.5587 -11.4798
   -11.4798 -11.4567 -11.4567 -11.4395 -11.4394 -11.4354 -11.4272  -5.2006
    -5.0980  -5.0979  -4.9847  -4.5273  -4.5248  -4.5248  -4.4949  -4.4743
    -4.4743  -4.4265  -4.4096  -4.4096  -4.3878  -4.3878  -4.3674  -4.3120
    -4.3120  -4.2856  -4.2646  -4.2347  -4.2347  -4.1430  -3.9423  -3.9423
    -3.4818  -3.4818  -3.4374  -3.3175  -3.2613  -3.2495  -3.2495  -3.1809
    -3.1809  -3.0898  -3.0509  -3.0407  -3.0407  -3.0322  -3.0321  -2.9946
    -2.9730  -2.9730  -2.8490  -2.8490  -2.7261  -2.6699  -2.6699  -2.6398
    -2.6139  -2.6139  -2.5888  -2.4512  -2.4424  -2.4424  -2.3215  -2.3215
    -2.2968  -2.2455  -2.1603  -2.1603  -2.0314  -2.0314  -1.9350  -1.9223
    -1.9223  -1.9039  -1.6022  -1.6022  -1.2946  -1.2904  -1.2904  -1.2869
    -1.2729  -1.2729  -1.1844  -1.1590  -1.1077  -1.1077  -1.0602  -1.0601
    -1.0350  -1.0016  -1.0016  -0.9172  -0.8486  -0.8486  -0.7947  -0.7401
    -0.7401  -0.5405  -0.5405  -0.4561  -0.2447  -0.1677  -0.1677  -0.1353
    -0.1228  -0.1199  -0.1199  -0.0464  -0.0463  -0.0032  -0.0032   0.0254
     0.0366   0.0774   0.0775   0.4359   0.6833   1.7419   1.7419   2.6690
     2.6853   2.6919   2.6919   2.7268   2.7268   2.7366   2.7466   2.7466
     2.7720   2.7720   2.8076   2.8146   2.8147   2.8649   2.9130   2.9220
     2.9220   2.9759   3.1583   3.1583   3.2737   3.2935   3.2935   3.3256
     3.3256   3.3435   3.3550   3.3550   3.3860   3.4184   3.4184   3.4550
     3.4550   3.4613   3.5095   3.5095   3.5953   3.6600

     occupation numbers 
     1.0000   1.0000   1.0000   1.0000   1.0000   1.0000   1.0000   1.0000
     1.0000   1.0000   1.0000   1.0000   1.0000   1.0000   1.0000   1.0000
     1.0000   1.0000   1.0000   1.0000   1.0000   1.0000   1.0000   1.0000
     1.0000   1.0000   1.0000   1.0000   1.0000   1.0000   1.0000   1.0000
     1.0000   1.0000   1.0000   1.0000   1.0000   1.0000   1.0000   1.0000
     1.0000   1.0000   1.0000   1.0000   1.0000   1.0000   1.0000   1.0000
     1.0000   1.0000   1.0000   1.0000   1.0000   1.0000   1.0000   1.0000
     1.0000   1.0000   1.0000   1.0000   1.0000   1.0000   1.0000   1.0000
     1.0000   1.0000   1.0000   1.0000   1.0000   1.0000   1.0000   1.0000
     1.0000   1.0000   1.0000   1.0000   1.0000   1.0000   1.0000   1.0000
     1.0000   1.0000   1.0000   1.0000   1.0000   1.0000   1.0000   1.0000
     1.0000   1.0000   1.0000   1.0000   1.0000   1.0000   1.0000   1.0000
     1.0000   1.0000   1.0000   1.0000   1.0000   1.0000   1.0000   1.0000
     1.0000   1.0000   1.0000   1.0000   1.0000   1.0000   1.0000   1.0000
     1.0000   1.0000   1.0000   1.0000   1.0000   1.0000   1.0000   1.0000
     1.0000   1.0000   1.0000   1.0000   1.0000   1.0000   1.0000   1.0000
     1.0000   1.0000   1.0000   1.0000   1.0000   1.0000   1.0000   1.0000
     1.0000   1.0000   1.0000   1.0000   1.0000   1.0000   1.0000   1.0000
     1.0000   1.0000   1.0000   1.0000   1.0000   1.0000   1.0000   1.0000
     1.0000   1.0000   1.0000   1.0000   1.0000   1.0000   1.0000   1.0000
     1.0000   1.0000   1.0000   1.0000   1.0000   1.0000   1.0000   1.0000
     1.0000   1.0000   1.0000   1.0000   1.0000   1.0000   1.0000   1.0000
     1.0000   1.0000   1.0000   1.0000   1.0000   1.0000   1.0000   1.0000
     1.0000   1.0000   1.0000   1.0000   1.0000   1.0000   1.0000   1.0000
     1.0000   1.0000   1.0000   1.0000   1.0000   1.0000   1.0000   1.0000
     1.0000   1.0000   1.0000   1.0000   0.9992   0.0002   0.0002   0.0000
     0.0000   0.0000   0.0000   0.0000   0.0000   0.0000   0.0000   0.0000
     0.0000   0.0000   0.0000   0.0000   0.0000   0.0000   0.0000   0.0000
     0.0000   0.0000   0.0000   0.0000   0.0000   0.0000   0.0000   0.0000
     0.0000   0.0000   0.0000   0.0000   0.0000   0.0000   0.0000   0.0000
     0.0000   0.0000   0.0000   0.0000   0.0000   0.0000

          k = 0.0000 0.1925 0.0000 (126305 PWs)   bands (ev):

   -60.3631 -60.3563 -60.3559 -60.3446 -60.3380 -60.3378 -60.3320 -60.3095
   -60.3095 -60.3076 -60.3002 -60.3001 -60.2963 -60.2915 -60.2755 -60.2754
   -34.6587 -34.6566 -34.6138 -34.5994 -34.5914 -34.5887 -34.5693 -34.5616
   -34.5323 -34.5084 -34.4916 -34.4832 -34.4749 -34.4679 -34.4560 -34.4539
   -34.4524 -34.4442 -34.4439 -34.4397 -34.4350 -34.4291 -34.4282 -34.4241
   -34.4210 -34.4053 -34.4053 -34.4032 -34.3970 -34.3949 -34.3876 -34.3873
   -34.3851 -34.3779 -34.3775 -34.3730 -34.3679 -34.3672 -34.3562 -34.3561
   -34.3415 -34.3399 -34.3343 -34.3062 -34.2970 -34.2936 -34.2175 -34.2155
   -13.4388 -12.8938 -12.7912 -12.7477 -12.5585 -12.5123 -12.4247 -12.1599
   -11.9502 -11.9176 -11.8865 -11.8620 -11.8454 -11.8112 -11.7858 -11.7626
   -11.7165 -11.7086 -11.6812 -11.6776 -11.6248 -11.5799 -11.5471 -11.5179
   -11.4997 -11.4823 -11.4673 -11.4452 -11.4379 -11.4034 -11.3839  -5.1634
    -5.0645  -5.0638  -4.9552  -4.5842  -4.5503  -4.5487  -4.5338  -4.5196
    -4.4891  -4.4695  -4.4410  -4.4282  -4.4220  -4.4060  -4.3881  -4.3880
    -4.3005  -4.2677  -4.2509  -4.1636  -4.0950  -4.0863  -3.9109  -3.8893
    -3.4687  -3.4682  -3.4186  -3.3331  -3.3030  -3.2764  -3.2746  -3.1921
    -3.1631  -3.1604  -3.1300  -3.1079  -3.0985  -3.0842  -3.0765  -3.0088
    -3.0040  -2.8985  -2.7596  -2.7525  -2.6922  -2.6769  -2.6441  -2.6417
    -2.5939  -2.5875  -2.5609  -2.5559  -2.5412  -2.3936  -2.2977  -2.2927
    -2.1616  -2.1513  -2.1128  -2.0988  -2.0642  -2.0158  -1.9989  -1.9728
    -1.9264  -1.8008  -1.6350  -1.5982  -1.4350  -1.4128  -1.3173  -1.2943
    -1.2472  -1.2421  -1.2238  -1.2091  -1.1492  -1.1460  -1.0689  -1.0624
    -1.0200  -0.9642  -0.9117  -0.9040  -0.8229  -0.8005  -0.7503  -0.6735
    -0.6630  -0.6119  -0.6032  -0.5136  -0.3294  -0.2623  -0.2276  -0.1562
    -0.1313  -0.1259  -0.0507  -0.0373  -0.0302   0.0136   0.0142   0.0361
     0.1122   0.1857   0.1909   0.4408   0.6669   1.7419   1.7471   2.5696
     2.5841   2.6820   2.6896   2.7119   2.7179   2.7226   2.7314   2.7581
     2.7625   2.7864   2.7936   2.8261   2.8301   2.8658   2.8938   2.9649
     2.9714   3.0049   3.1112   3.1171   3.1877   3.2227   3.2408   3.2533
     3.2827   3.2894   3.3209   3.3426   3.3685   3.3803   3.4201   3.4371
     3.5147   3.5342   3.6081   3.6275   3.6438   3.6439

     occupation numbers 
     1.0000   1.0000   1.0000   1.0000   1.0000   1.0000   1.0000   1.0000
     1.0000   1.0000   1.0000   1.0000   1.0000   1.0000   1.0000   1.0000
     1.0000   1.0000   1.0000   1.0000   1.0000   1.0000   1.0000   1.0000
     1.0000   1.0000   1.0000   1.0000   1.0000   1.0000   1.0000   1.0000
     1.0000   1.0000   1.0000   1.0000   1.0000   1.0000   1.0000   1.0000
     1.0000   1.0000   1.0000   1.0000   1.0000   1.0000   1.0000   1.0000
     1.0000   1.0000   1.0000   1.0000   1.0000   1.0000   1.0000   1.0000
     1.0000   1.0000   1.0000   1.0000   1.0000   1.0000   1.0000   1.0000
     1.0000   1.0000   1.0000   1.0000   1.0000   1.0000   1.0000   1.0000
     1.0000   1.0000   1.0000   1.0000   1.0000   1.0000   1.0000   1.0000
     1.0000   1.0000   1.0000   1.0000   1.0000   1.0000   1.0000   1.0000
     1.0000   1.0000   1.0000   1.0000   1.0000   1.0000   1.0000   1.0000
     1.0000   1.0000   1.0000   1.0000   1.0000   1.0000   1.0000   1.0000
     1.0000   1.0000   1.0000   1.0000   1.0000   1.0000   1.0000   1.0000
     1.0000   1.0000   1.0000   1.0000   1.0000   1.0000   1.0000   1.0000
     1.0000   1.0000   1.0000   1.0000   1.0000   1.0000   1.0000   1.0000
     1.0000   1.0000   1.0000   1.0000   1.0000   1.0000   1.0000   1.0000
     1.0000   1.0000   1.0000   1.0000   1.0000   1.0000   1.0000   1.0000
     1.0000   1.0000   1.0000   1.0000   1.0000   1.0000   1.0000   1.0000
     1.0000   1.0000   1.0000   1.0000   1.0000   1.0000   1.0000   1.0000
     1.0000   1.0000   1.0000   1.0000   1.0000   1.0000   1.0000   1.0000
     1.0000   1.0000   1.0000   1.0000   1.0000   1.0000   1.0000   1.0000
     1.0000   1.0000   1.0000   1.0000   1.0000   1.0000   1.0000   1.0000
     1.0000   1.0000   1.0000   1.0000   1.0000   1.0000   1.0000   1.0000
     1.0000   1.0000   1.0000   1.0000   1.0000   1.0000   1.0000   1.0000
     1.0000   1.0000   1.0000   1.0000   0.9994   0.0002   0.0002   0.0000
     0.0000   0.0000   0.0000   0.0000   0.0000   0.0000   0.0000   0.0000
     0.0000   0.0000   0.0000   0.0000   0.0000   0.0000   0.0000   0.0000
     0.0000   0.0000   0.0000   0.0000   0.0000   0.0000   0.0000   0.0000
     0.0000   0.0000   0.0000   0.0000   0.0000   0.0000   0.0000   0.0000
     0.0000   0.0000   0.0000   0.0000   0.0000   0.0000

          k = 0.0000 0.3849 0.0000 (126328 PWs)   bands (ev):

   -60.3626 -60.3571 -60.3560 -60.3444 -60.3384 -60.3378 -60.3318 -60.3094
   -60.3093 -60.3075 -60.3005 -60.3003 -60.2961 -60.2914 -60.2756 -60.2754
   -34.6514 -34.6431 -34.6101 -34.6064 -34.5950 -34.5906 -34.5714 -34.5539
   -34.5488 -34.5335 -34.5100 -34.4847 -34.4758 -34.4731 -34.4586 -34.4562
   -34.4528 -34.4420 -34.4335 -34.4311 -34.4307 -34.4276 -34.4260 -34.4122
   -34.4081 -34.4057 -34.4041 -34.3970 -34.3919 -34.3909 -34.3888 -34.3853
   -34.3829 -34.3778 -34.3765 -34.3763 -34.3663 -34.3567 -34.3561 -34.3524
   -34.3498 -34.3452 -34.3358 -34.3073 -34.3069 -34.2935 -34.2223 -34.2161
   -13.3662 -13.0840 -12.8513 -12.7989 -12.4013 -12.3668 -12.2137 -12.1318
   -12.0436 -12.0367 -11.9913 -11.9348 -11.8966 -11.8250 -11.7523 -11.7375
   -11.7054 -11.6828 -11.6815 -11.6691 -11.6308 -11.5936 -11.5608 -11.5213
   -11.5007 -11.4769 -11.4644 -11.4457 -11.4383 -11.3734 -11.3476  -5.0581
    -4.9707  -4.9673  -4.8703  -4.7242  -4.6762  -4.6593  -4.6166  -4.6069
    -4.5747  -4.5091  -4.4999  -4.4389  -4.4229  -4.4068  -4.3627  -4.3547
    -4.3072  -4.2481  -4.2263  -4.1698  -4.0311  -3.9359  -3.7422  -3.7119
    -3.5325  -3.4303  -3.4276  -3.3751  -3.3302  -3.3088  -3.3071  -3.2875
    -3.2623  -3.2455  -3.2383  -3.2010  -3.1547  -3.1518  -3.1250  -3.0073
    -2.9342  -2.7977  -2.6949  -2.6827  -2.6539  -2.6369  -2.6271  -2.6267
    -2.5981  -2.5613  -2.5430  -2.4815  -2.4403  -2.4110  -2.3806  -2.3251
    -2.3085  -2.2394  -2.1084  -2.0832  -2.0147  -1.9376  -1.8527  -1.7591
    -1.7490  -1.6843  -1.6789  -1.5772  -1.5748  -1.4686  -1.3840  -1.3649
    -1.3191  -1.3113  -1.2281  -1.2214  -1.1727  -1.1661  -1.1367  -1.1240
    -1.0136  -1.0044  -0.9508  -0.9076  -0.8182  -0.7883  -0.7485  -0.6811
    -0.6186  -0.6059  -0.5018  -0.4650  -0.3845  -0.3111  -0.2702  -0.2341
    -0.2000  -0.1953  -0.0092   0.0058   0.0178   0.0391   0.0516   0.0661
     0.2930   0.3212   0.3299   0.4546   0.6181   1.7418   1.7606   2.4269
     2.4571   2.6065   2.6342   2.6568   2.6880   2.6954   2.7197   2.7404
     2.7580   2.7738   2.8040   2.8429   2.8728   2.8996   2.9323   2.9962
     3.0082   3.0443   3.0645   3.0954   3.1032   3.1217   3.1479   3.1759
     3.2020   3.2525   3.2725   3.3015   3.3422   3.3516   3.3703   3.4666
     3.5103   3.5354   3.5805   3.6567   3.7405   3.7438

     occupation numbers 
     1.0000   1.0000   1.0000   1.0000   1.0000   1.0000   1.0000   1.0000
     1.0000   1.0000   1.0000   1.0000   1.0000   1.0000   1.0000   1.0000
     1.0000   1.0000   1.0000   1.0000   1.0000   1.0000   1.0000   1.0000
     1.0000   1.0000   1.0000   1.0000   1.0000   1.0000   1.0000   1.0000
     1.0000   1.0000   1.0000   1.0000   1.0000   1.0000   1.0000   1.0000
     1.0000   1.0000   1.0000   1.0000   1.0000   1.0000   1.0000   1.0000
     1.0000   1.0000   1.0000   1.0000   1.0000   1.0000   1.0000   1.0000
     1.0000   1.0000   1.0000   1.0000   1.0000   1.0000   1.0000   1.0000
     1.0000   1.0000   1.0000   1.0000   1.0000   1.0000   1.0000   1.0000
     1.0000   1.0000   1.0000   1.0000   1.0000   1.0000   1.0000   1.0000
     1.0000   1.0000   1.0000   1.0000   1.0000   1.0000   1.0000   1.0000
     1.0000   1.0000   1.0000   1.0000   1.0000   1.0000   1.0000   1.0000
     1.0000   1.0000   1.0000   1.0000   1.0000   1.0000   1.0000   1.0000
     1.0000   1.0000   1.0000   1.0000   1.0000   1.0000   1.0000   1.0000
     1.0000   1.0000   1.0000   1.0000   1.0000   1.0000   1.0000   1.0000
     1.0000   1.0000   1.0000   1.0000   1.0000   1.0000   1.0000   1.0000
     1.0000   1.0000   1.0000   1.0000   1.0000   1.0000   1.0000   1.0000
     1.0000   1.0000   1.0000   1.0000   1.0000   1.0000   1.0000   1.0000
     1.0000   1.0000   1.0000   1.0000   1.0000   1.0000   1.0000   1.0000
     1.0000   1.0000   1.0000   1.0000   1.0000   1.0000   1.0000   1.0000
     1.0000   1.0000   1.0000   1.0000   1.0000   1.0000   1.0000   1.0000
     1.0000   1.0000   1.0000   1.0000   1.0000   1.0000   1.0000   1.0000
     1.0000   1.0000   1.0000   1.0000   1.0000   1.0000   1.0000   1.0000
     1.0000   1.0000   1.0000   1.0000   1.0000   1.0000   1.0000   1.0000
     1.0000   1.0000   1.0000   1.0000   1.0000   1.0000   1.0000   1.0000
     1.0000   1.0000   1.0000   1.0000   0.9997   0.0002   0.0002   0.0000
     0.0000   0.0000   0.0000   0.0000   0.0000   0.0000   0.0000   0.0000
     0.0000   0.0000   0.0000   0.0000   0.0000   0.0000   0.0000   0.0000
     0.0000   0.0000   0.0000   0.0000   0.0000   0.0000   0.0000   0.0000
     0.0000   0.0000   0.0000   0.0000   0.0000   0.0000   0.0000   0.0000
     0.0000   0.0000   0.0000   0.0000   0.0000   0.0000

          k = 0.0000-0.5774 0.0000 (126288 PWs)   bands (ev):

   -60.3623 -60.3575 -60.3560 -60.3442 -60.3386 -60.3377 -60.3316 -60.3094
   -60.3092 -60.3075 -60.3007 -60.3004 -60.2960 -60.2913 -60.2756 -60.2754
   -34.6459 -34.6289 -34.6176 -34.6143 -34.5938 -34.5896 -34.5692 -34.5579
   -34.5480 -34.5457 -34.5198 -34.4809 -34.4799 -34.4720 -34.4654 -34.4595
   -34.4530 -34.4428 -34.4326 -34.4275 -34.4253 -34.4217 -34.4213 -34.4076
   -34.4055 -34.4052 -34.3986 -34.3966 -34.3965 -34.3905 -34.3896 -34.3890
   -34.3815 -34.3774 -34.3687 -34.3676 -34.3672 -34.3582 -34.3565 -34.3551
   -34.3550 -34.3377 -34.3369 -34.3159 -34.3081 -34.2932 -34.2248 -34.2164
   -13.2685 -13.2219 -12.8717 -12.8172 -12.2459 -12.2291 -12.2224 -12.1580
   -12.0967 -12.0768 -12.0175 -11.9530 -11.9431 -11.9007 -11.7091 -11.7050
   -11.6996 -11.6745 -11.6660 -11.6639 -11.6582 -11.6023 -11.5962 -11.5505
   -11.4796 -11.4614 -11.4579 -11.4427 -11.4384 -11.3624 -11.3347  -4.9249
    -4.8776  -4.8669  -4.8475  -4.7885  -4.7842  -4.7603  -4.7101  -4.6596
    -4.6574  -4.4948  -4.4936  -4.4514  -4.4369  -4.4132  -4.3423  -4.3285
    -4.2981  -4.2452  -4.2295  -4.1440  -4.0345  -3.8109  -3.7347  -3.5668
    -3.5074  -3.4373  -3.4367  -3.3823  -3.3711  -3.3630  -3.3339  -3.3317
    -3.3056  -3.2948  -3.2807  -3.2396  -3.1974  -3.1733  -3.1291  -2.9908
    -2.9558  -2.6688  -2.6593  -2.6332  -2.6300  -2.6012  -2.5874  -2.5719
    -2.5644  -2.5577  -2.5514  -2.5266  -2.5191  -2.4292  -2.4288  -2.3924
    -2.3587  -2.2306  -2.1077  -2.0373  -2.0220  -1.9290  -1.8558  -1.8284
    -1.6920  -1.5080  -1.4955  -1.4375  -1.4056  -1.4014  -1.3964  -1.3738
    -1.3602  -1.3528  -1.3286  -1.3156  -1.2901  -1.2143  -1.1908  -1.1727
    -1.1654  -1.1644  -0.9595  -0.9296  -0.8083  -0.7244  -0.7029  -0.6548
    -0.6355  -0.5986  -0.4403  -0.4146  -0.3565  -0.3162  -0.2954  -0.2702
    -0.2509  -0.2231   0.0035   0.0313   0.0322   0.0497   0.0695   0.0790
     0.3722   0.3800   0.4036   0.4681   0.5708   1.7413   1.7692   2.3630
     2.4023   2.5686   2.5978   2.6101   2.6591   2.6835   2.7167   2.7413
     2.7607   2.7702   2.8059   2.8359   2.8853   2.9955   3.0037   3.0195
     3.0250   3.0417   3.0455   3.0573   3.0617   3.0752   3.0770   3.1309
     3.1451   3.2034   3.2987   3.3026   3.3260   3.3268   3.3446   3.4973
     3.5190   3.5311   3.6210   3.6623   3.6818   3.7510

     occupation numbers 
     1.0000   1.0000   1.0000   1.0000   1.0000   1.0000   1.0000   1.0000
     1.0000   1.0000   1.0000   1.0000   1.0000   1.0000   1.0000   1.0000
     1.0000   1.0000   1.0000   1.0000   1.0000   1.0000   1.0000   1.0000
     1.0000   1.0000   1.0000   1.0000   1.0000   1.0000   1.0000   1.0000
     1.0000   1.0000   1.0000   1.0000   1.0000   1.0000   1.0000   1.0000
     1.0000   1.0000   1.0000   1.0000   1.0000   1.0000   1.0000   1.0000
     1.0000   1.0000   1.0000   1.0000   1.0000   1.0000   1.0000   1.0000
     1.0000   1.0000   1.0000   1.0000   1.0000   1.0000   1.0000   1.0000
     1.0000   1.0000   1.0000   1.0000   1.0000   1.0000   1.0000   1.0000
     1.0000   1.0000   1.0000   1.0000   1.0000   1.0000   1.0000   1.0000
     1.0000   1.0000   1.0000   1.0000   1.0000   1.0000   1.0000   1.0000
     1.0000   1.0000   1.0000   1.0000   1.0000   1.0000   1.0000   1.0000
     1.0000   1.0000   1.0000   1.0000   1.0000   1.0000   1.0000   1.0000
     1.0000   1.0000   1.0000   1.0000   1.0000   1.0000   1.0000   1.0000
     1.0000   1.0000   1.0000   1.0000   1.0000   1.0000   1.0000   1.0000
     1.0000   1.0000   1.0000   1.0000   1.0000   1.0000   1.0000   1.0000
     1.0000   1.0000   1.0000   1.0000   1.0000   1.0000   1.0000   1.0000
     1.0000   1.0000   1.0000   1.0000   1.0000   1.0000   1.0000   1.0000
     1.0000   1.0000   1.0000   1.0000   1.0000   1.0000   1.0000   1.0000
     1.0000   1.0000   1.0000   1.0000   1.0000   1.0000   1.0000   1.0000
     1.0000   1.0000   1.0000   1.0000   1.0000   1.0000   1.0000   1.0000
     1.0000   1.0000   1.0000   1.0000   1.0000   1.0000   1.0000   1.0000
     1.0000   1.0000   1.0000   1.0000   1.0000   1.0000   1.0000   1.0000
     1.0000   1.0000   1.0000   1.0000   1.0000   1.0000   1.0000   1.0000
     1.0000   1.0000   1.0000   1.0000   1.0000   1.0000   1.0000   1.0000
     1.0000   1.0000   1.0000   1.0000   0.9998   0.0002   0.0001   0.0000
     0.0000   0.0000   0.0000   0.0000   0.0000   0.0000   0.0000   0.0000
     0.0000   0.0000   0.0000   0.0000   0.0000   0.0000   0.0000   0.0000
     0.0000   0.0000   0.0000   0.0000   0.0000   0.0000   0.0000   0.0000
     0.0000   0.0000   0.0000   0.0000   0.0000   0.0000   0.0000   0.0000
     0.0000   0.0000   0.0000   0.0000   0.0000   0.0000

          k = 0.1667 0.2887 0.0000 (126343 PWs)   bands (ev):

   -60.3627 -60.3568 -60.3560 -60.3444 -60.3383 -60.3378 -60.3318 -60.3094
   -60.3093 -60.3076 -60.3004 -60.3002 -60.2961 -60.2914 -60.2756 -60.2754
   -34.6535 -34.6475 -34.6081 -34.6043 -34.5992 -34.5826 -34.5762 -34.5591
   -34.5406 -34.5287 -34.5010 -34.4941 -34.4736 -34.4659 -34.4564 -34.4549
   -34.4531 -34.4424 -34.4385 -34.4341 -34.4301 -34.4281 -34.4263 -34.4245
   -34.4066 -34.4048 -34.4025 -34.3968 -34.3940 -34.3906 -34.3879 -34.3868
   -34.3842 -34.3789 -34.3773 -34.3737 -34.3670 -34.3585 -34.3560 -34.3556
   -34.3470 -34.3441 -34.3357 -34.3077 -34.3026 -34.2940 -34.2209 -34.2160
   -13.3901 -12.9931 -12.9552 -12.6427 -12.5767 -12.3172 -12.2997 -12.1412
   -12.0386 -11.9861 -11.9696 -11.8636 -11.8522 -11.8286 -11.7975 -11.7653
   -11.7480 -11.7001 -11.6904 -11.6253 -11.6008 -11.5873 -11.5361 -11.5298
   -11.5035 -11.4945 -11.4884 -11.4468 -11.4059 -11.3976 -11.3514  -5.0918
    -5.0003  -4.9986  -4.8980  -4.6660  -4.6413  -4.6150  -4.5764  -4.5487
    -4.5419  -4.5216  -4.5082  -4.4887  -4.4479  -4.4410  -4.3866  -4.3601
    -4.2944  -4.2338  -4.1994  -4.0970  -4.0523  -3.9818  -3.8803  -3.7087
    -3.4493  -3.4466  -3.4374  -3.4150  -3.3549  -3.3260  -3.2880  -3.2689
    -3.2324  -3.2246  -3.1868  -3.1742  -3.1339  -3.1157  -3.0528  -2.9774
    -2.9359  -2.8892  -2.8213  -2.7772  -2.6913  -2.6663  -2.6235  -2.5997
    -2.5710  -2.5445  -2.5163  -2.4804  -2.3927  -2.3603  -2.3061  -2.2787
    -2.2584  -2.2348  -2.2133  -2.1448  -2.0547  -1.9578  -1.8708  -1.7777
    -1.7433  -1.7420  -1.6471  -1.6189  -1.5964  -1.4699  -1.3835  -1.3391
    -1.3122  -1.2583  -1.2396  -1.2289  -1.1985  -1.1330  -1.1008  -1.0518
    -0.9976  -0.9645  -0.9527  -0.9186  -0.8269  -0.7971  -0.7375  -0.6819
    -0.6224  -0.5913  -0.5462  -0.5260  -0.3527  -0.3395  -0.2288  -0.1970
    -0.1386  -0.1316  -0.1151  -0.0994  -0.0519   0.0650   0.1222   0.1523
     0.2121   0.2201   0.3427   0.4491   0.6339   1.7376   1.7613   2.4061
     2.5931   2.6061   2.6308   2.6678   2.6819   2.7089   2.7236   2.7441
     2.7671   2.7751   2.8094   2.8308   2.8578   2.8802   2.9249   2.9832
     3.0048   3.0416   3.0701   3.1018   3.1360   3.1528   3.1713   3.1795
     3.2171   3.2334   3.2935   3.3025   3.3035   3.3649   3.3814   3.4627
     3.5323   3.5517   3.6338   3.6843   3.7102   3.7229

     occupation numbers 
     1.0000   1.0000   1.0000   1.0000   1.0000   1.0000   1.0000   1.0000
     1.0000   1.0000   1.0000   1.0000   1.0000   1.0000   1.0000   1.0000
     1.0000   1.0000   1.0000   1.0000   1.0000   1.0000   1.0000   1.0000
     1.0000   1.0000   1.0000   1.0000   1.0000   1.0000   1.0000   1.0000
     1.0000   1.0000   1.0000   1.0000   1.0000   1.0000   1.0000   1.0000
     1.0000   1.0000   1.0000   1.0000   1.0000   1.0000   1.0000   1.0000
     1.0000   1.0000   1.0000   1.0000   1.0000   1.0000   1.0000   1.0000
     1.0000   1.0000   1.0000   1.0000   1.0000   1.0000   1.0000   1.0000
     1.0000   1.0000   1.0000   1.0000   1.0000   1.0000   1.0000   1.0000
     1.0000   1.0000   1.0000   1.0000   1.0000   1.0000   1.0000   1.0000
     1.0000   1.0000   1.0000   1.0000   1.0000   1.0000   1.0000   1.0000
     1.0000   1.0000   1.0000   1.0000   1.0000   1.0000   1.0000   1.0000
     1.0000   1.0000   1.0000   1.0000   1.0000   1.0000   1.0000   1.0000
     1.0000   1.0000   1.0000   1.0000   1.0000   1.0000   1.0000   1.0000
     1.0000   1.0000   1.0000   1.0000   1.0000   1.0000   1.0000   1.0000
     1.0000   1.0000   1.0000   1.0000   1.0000   1.0000   1.0000   1.0000
     1.0000   1.0000   1.0000   1.0000   1.0000   1.0000   1.0000   1.0000
     1.0000   1.0000   1.0000   1.0000   1.0000   1.0000   1.0000   1.0000
     1.0000   1.0000   1.0000   1.0000   1.0000   1.0000   1.0000   1.0000
     1.0000   1.0000   1.0000   1.0000   1.0000   1.0000   1.0000   1.0000
     1.0000   1.0000   1.0000   1.0000   1.0000   1.0000   1.0000   1.0000
     1.0000   1.0000   1.0000   1.0000   1.0000   1.0000   1.0000   1.0000
     1.0000   1.0000   1.0000   1.0000   1.0000   1.0000   1.0000   1.0000
     1.0000   1.0000   1.0000   1.0000   1.0000   1.0000   1.0000   1.0000
     1.0000   1.0000   1.0000   1.0000   1.0000   1.0000   1.0000   1.0000
     1.0000   1.0000   1.0000   1.0000   0.9996   0.0002   0.0002   0.0000
     0.0000   0.0000   0.0000   0.0000   0.0000   0.0000   0.0000   0.0000
     0.0000   0.0000   0.0000   0.0000   0.0000   0.0000   0.0000   0.0000
     0.0000   0.0000   0.0000   0.0000   0.0000   0.0000   0.0000   0.0000
     0.0000   0.0000   0.0000   0.0000   0.0000   0.0000   0.0000   0.0000
     0.0000   0.0000   0.0000   0.0000   0.0000   0.0000

          k = 0.1667 0.4811 0.0000 (126406 PWs)   bands (ev):

   -60.3623 -60.3574 -60.3561 -60.3442 -60.3386 -60.3378 -60.3316 -60.3094
   -60.3092 -60.3075 -60.3007 -60.3005 -60.2960 -60.2913 -60.2756 -60.2754
   -34.6457 -34.6328 -34.6153 -34.6059 -34.6005 -34.5870 -34.5731 -34.5614
   -34.5556 -34.5311 -34.5168 -34.4973 -34.4722 -34.4718 -34.4589 -34.4547
   -34.4489 -34.4423 -34.4414 -34.4328 -34.4278 -34.4249 -34.4206 -34.4080
   -34.4065 -34.4043 -34.4016 -34.3978 -34.3916 -34.3898 -34.3872 -34.3835
   -34.3798 -34.3774 -34.3725 -34.3708 -34.3638 -34.3572 -34.3564 -34.3552
   -34.3535 -34.3418 -34.3369 -34.3158 -34.3068 -34.2942 -34.2243 -34.2168
   -13.2963 -13.1514 -13.0121 -12.6497 -12.4313 -12.2424 -12.1609 -12.1139
   -12.0852 -12.0496 -12.0063 -11.9756 -11.8927 -11.8497 -11.8110 -11.7701
   -11.7513 -11.6865 -11.6422 -11.6233 -11.6083 -11.5818 -11.5676 -11.5467
   -11.5067 -11.5007 -11.4737 -11.4221 -11.4087 -11.3772 -11.3301  -4.9614
    -4.8878  -4.8804  -4.7949  -4.7835  -4.7544  -4.7128  -4.6825  -4.6411
    -4.6262  -4.6033  -4.5554  -4.5014  -4.4855  -4.4127  -4.3635  -4.3492
    -4.2729  -4.2541  -4.1017  -4.0535  -3.9679  -3.8757  -3.7800  -3.6585
    -3.5749  -3.4198  -3.4071  -3.3831  -3.3533  -3.3405  -3.3238  -3.3086
    -3.2956  -3.2797  -3.2667  -3.2323  -3.2276  -3.1414  -3.1010  -3.0031
    -2.9151  -2.8190  -2.7429  -2.6956  -2.6583  -2.6275  -2.5979  -2.5772
    -2.5481  -2.5132  -2.4987  -2.4795  -2.4514  -2.4267  -2.3951  -2.3787
    -2.2997  -2.2571  -2.1587  -2.0332  -1.9999  -1.8648  -1.8147  -1.7709
    -1.6947  -1.6716  -1.6032  -1.5004  -1.4802  -1.4474  -1.3940  -1.3608
    -1.3537  -1.3393  -1.3056  -1.2616  -1.2210  -1.2102  -1.1624  -1.1230
    -1.0871  -1.0305  -0.9939  -0.9684  -0.8914  -0.7974  -0.7611  -0.6914
    -0.5740  -0.5501  -0.4544  -0.4355  -0.3286  -0.3021  -0.2610  -0.2410
    -0.2207  -0.1899  -0.1093  -0.0940  -0.0563   0.1093   0.1473   0.2160
     0.2872   0.3586   0.4442   0.4649   0.5773   1.7313   1.7802   2.2819
     2.5271   2.5364   2.5980   2.6271   2.6671   2.6849   2.7086   2.7226
     2.7622   2.7884   2.7975   2.8292   2.8890   2.9546   2.9836   3.0018
     3.0244   3.0415   3.0593   3.0730   3.0848   3.1047   3.1115   3.1249
     3.1560   3.1676   3.1937   3.2389   3.3025   3.3444   3.4119   3.4487
     3.5313   3.5843   3.6742   3.7151   3.7548   3.7655

     occupation numbers 
     1.0000   1.0000   1.0000   1.0000   1.0000   1.0000   1.0000   1.0000
     1.0000   1.0000   1.0000   1.0000   1.0000   1.0000   1.0000   1.0000
     1.0000   1.0000   1.0000   1.0000   1.0000   1.0000   1.0000   1.0000
     1.0000   1.0000   1.0000   1.0000   1.0000   1.0000   1.0000   1.0000
     1.0000   1.0000   1.0000   1.0000   1.0000   1.0000   1.0000   1.0000
     1.0000   1.0000   1.0000   1.0000   1.0000   1.0000   1.0000   1.0000
     1.0000   1.0000   1.0000   1.0000   1.0000   1.0000   1.0000   1.0000
     1.0000   1.0000   1.0000   1.0000   1.0000   1.0000   1.0000   1.0000
     1.0000   1.0000   1.0000   1.0000   1.0000   1.0000   1.0000   1.0000
     1.0000   1.0000   1.0000   1.0000   1.0000   1.0000   1.0000   1.0000
     1.0000   1.0000   1.0000   1.0000   1.0000   1.0000   1.0000   1.0000
     1.0000   1.0000   1.0000   1.0000   1.0000   1.0000   1.0000   1.0000
     1.0000   1.0000   1.0000   1.0000   1.0000   1.0000   1.0000   1.0000
     1.0000   1.0000   1.0000   1.0000   1.0000   1.0000   1.0000   1.0000
     1.0000   1.0000   1.0000   1.0000   1.0000   1.0000   1.0000   1.0000
     1.0000   1.0000   1.0000   1.0000   1.0000   1.0000   1.0000   1.0000
     1.0000   1.0000   1.0000   1.0000   1.0000   1.0000   1.0000   1.0000
     1.0000   1.0000   1.0000   1.0000   1.0000   1.0000   1.0000   1.0000
     1.0000   1.0000   1.0000   1.0000   1.0000   1.0000   1.0000   1.0000
     1.0000   1.0000   1.0000   1.0000   1.0000   1.0000   1.0000   1.0000
     1.0000   1.0000   1.0000   1.0000   1.0000   1.0000   1.0000   1.0000
     1.0000   1.0000   1.0000   1.0000   1.0000   1.0000   1.0000   1.0000
     1.0000   1.0000   1.0000   1.0000   1.0000   1.0000   1.0000   1.0000
     1.0000   1.0000   1.0000   1.0000   1.0000   1.0000   1.0000   1.0000
     1.0000   1.0000   1.0000   1.0000   1.0000   1.0000   1.0000   1.0000
     1.0000   1.0000   1.0000   1.0000   0.9998   0.0002   0.0001   0.0000
     0.0000   0.0000   0.0000   0.0000   0.0000   0.0000   0.0000   0.0000
     0.0000   0.0000   0.0000   0.0000   0.0000   0.0000   0.0000   0.0000
     0.0000   0.0000   0.0000   0.0000   0.0000   0.0000   0.0000   0.0000
     0.0000   0.0000   0.0000   0.0000   0.0000   0.0000   0.0000   0.0000
     0.0000   0.0000   0.0000   0.0000   0.0000   0.0000

          k = 0.3333 0.5774 0.0000 (126429 PWs)   bands (ev):

   -60.3621 -60.3576 -60.3561 -60.3442 -60.3386 -60.3378 -60.3316 -60.3094
   -60.3091 -60.3075 -60.3007 -60.3006 -60.2959 -60.2913 -60.2756 -60.2754
   -34.6410 -34.6289 -34.6168 -34.6038 -34.5970 -34.5932 -34.5825 -34.5618
   -34.5565 -34.5249 -34.5222 -34.5036 -34.4712 -34.4682 -34.4588 -34.4565
   -34.4558 -34.4411 -34.4324 -34.4280 -34.4262 -34.4244 -34.4230 -34.4218
   -34.4073 -34.4038 -34.3978 -34.3917 -34.3914 -34.3875 -34.3875 -34.3829
   -34.3777 -34.3760 -34.3719 -34.3639 -34.3614 -34.3590 -34.3578 -34.3559
   -34.3550 -34.3438 -34.3320 -34.3239 -34.3068 -34.2950 -34.2249 -34.2174
   -13.2024 -13.1915 -13.1275 -12.4789 -12.4739 -12.3885 -12.0804 -12.0575
   -12.0513 -11.9921 -11.9860 -11.9627 -11.9545 -11.9528 -11.8341 -11.7854
   -11.7760 -11.7224 -11.6013 -11.5938 -11.5651 -11.5635 -11.5618 -11.5575
   -11.5533 -11.5371 -11.4689 -11.3986 -11.3940 -11.3909 -11.3218  -4.8515
    -4.7966  -4.7942  -4.7831  -4.7789  -4.7649  -4.7576  -4.7565  -4.6888
    -4.6853  -4.6741  -4.6081  -4.5952  -4.4886  -4.4384  -4.3671  -4.3161
    -4.2643  -4.2592  -3.9483  -3.9327  -3.8701  -3.8524  -3.8512  -3.7573
    -3.6948  -3.4440  -3.3693  -3.3666  -3.3642  -3.3526  -3.3266  -3.3020
    -3.2945  -3.2862  -3.2829  -3.2424  -3.1787  -3.1785  -3.0433  -3.0209
    -2.9563  -2.8151  -2.7350  -2.6342  -2.6218  -2.6005  -2.5905  -2.5783
    -2.5714  -2.5590  -2.5358  -2.5174  -2.5171  -2.5133  -2.4546  -2.3832
    -2.1671  -2.1641  -2.0517  -2.0196  -2.0150  -1.7967  -1.7756  -1.7447
    -1.7368  -1.6822  -1.5937  -1.5385  -1.5056  -1.4940  -1.4767  -1.4219
    -1.3353  -1.3059  -1.2665  -1.2214  -1.1816  -1.0800  -1.0775  -1.0699
    -1.0633  -1.0553  -1.0524  -1.0513  -1.0400  -1.0253  -0.7704  -0.6608
    -0.5581  -0.4856  -0.4496  -0.4057  -0.2805  -0.2429  -0.2428  -0.2217
    -0.2132  -0.2049  -0.1809  -0.1638  -0.1220   0.1645   0.1734   0.2504
     0.3377   0.3818   0.4254   0.5133   0.5495   1.7230   1.7940   2.2159
     2.4956   2.5752   2.5822   2.6386   2.6544   2.6597   2.6992   2.7272
     2.7417   2.7900   2.7940   2.8164   2.9575   2.9648   2.9909   2.9971
     3.0395   3.0449   3.0470   3.0636   3.0679   3.0704   3.0779   3.1105
     3.1350   3.1468   3.1834   3.2122   3.2502   3.2923   3.3723   3.5499
     3.5564   3.6596   3.6775   3.6842   3.7696   3.8107

     occupation numbers 
     1.0000   1.0000   1.0000   1.0000   1.0000   1.0000   1.0000   1.0000
     1.0000   1.0000   1.0000   1.0000   1.0000   1.0000   1.0000   1.0000
     1.0000   1.0000   1.0000   1.0000   1.0000   1.0000   1.0000   1.0000
     1.0000   1.0000   1.0000   1.0000   1.0000   1.0000   1.0000   1.0000
     1.0000   1.0000   1.0000   1.0000   1.0000   1.0000   1.0000   1.0000
     1.0000   1.0000   1.0000   1.0000   1.0000   1.0000   1.0000   1.0000
     1.0000   1.0000   1.0000   1.0000   1.0000   1.0000   1.0000   1.0000
     1.0000   1.0000   1.0000   1.0000   1.0000   1.0000   1.0000   1.0000
     1.0000   1.0000   1.0000   1.0000   1.0000   1.0000   1.0000   1.0000
     1.0000   1.0000   1.0000   1.0000   1.0000   1.0000   1.0000   1.0000
     1.0000   1.0000   1.0000   1.0000   1.0000   1.0000   1.0000   1.0000
     1.0000   1.0000   1.0000   1.0000   1.0000   1.0000   1.0000   1.0000
     1.0000   1.0000   1.0000   1.0000   1.0000   1.0000   1.0000   1.0000
     1.0000   1.0000   1.0000   1.0000   1.0000   1.0000   1.0000   1.0000
     1.0000   1.0000   1.0000   1.0000   1.0000   1.0000   1.0000   1.0000
     1.0000   1.0000   1.0000   1.0000   1.0000   1.0000   1.0000   1.0000
     1.0000   1.0000   1.0000   1.0000   1.0000   1.0000   1.0000   1.0000
     1.0000   1.0000   1.0000   1.0000   1.0000   1.0000   1.0000   1.0000
     1.0000   1.0000   1.0000   1.0000   1.0000   1.0000   1.0000   1.0000
     1.0000   1.0000   1.0000   1.0000   1.0000   1.0000   1.0000   1.0000
     1.0000   1.0000   1.0000   1.0000   1.0000   1.0000   1.0000   1.0000
     1.0000   1.0000   1.0000   1.0000   1.0000   1.0000   1.0000   1.0000
     1.0000   1.0000   1.0000   1.0000   1.0000   1.0000   1.0000   1.0000
     1.0000   1.0000   1.0000   1.0000   1.0000   1.0000   1.0000   1.0000
     1.0000   1.0000   1.0000   1.0000   1.0000   1.0000   1.0000   1.0000
     1.0000   1.0000   1.0000   0.9999   0.9999   0.0003   0.0001   0.0000
     0.0000   0.0000   0.0000   0.0000   0.0000   0.0000   0.0000   0.0000
     0.0000   0.0000   0.0000   0.0000   0.0000   0.0000   0.0000   0.0000
     0.0000   0.0000   0.0000   0.0000   0.0000   0.0000   0.0000   0.0000
     0.0000   0.0000   0.0000   0.0000   0.0000   0.0000   0.0000   0.0000
     0.0000   0.0000   0.0000   0.0000   0.0000   0.0000

 ------ SPIN DOWN ----------


          k = 0.0000 0.0000 0.0000 (126355 PWs)   bands (ev):

   -60.3634 -60.3560 -60.3559 -60.3448 -60.3379 -60.3378 -60.3322 -60.3096
   -60.3095 -60.3076 -60.3000 -60.2999 -60.2965 -60.2915 -60.2755 -60.2754
   -34.6615 -34.6615 -34.6172 -34.5969 -34.5894 -34.5894 -34.5648 -34.5648
   -34.5255 -34.4864 -34.4753 -34.4745 -34.4744 -34.4724 -34.4724 -34.4521
   -34.4521 -34.4506 -34.4482 -34.4392 -34.4353 -34.4323 -34.4322 -34.4294
   -34.4294 -34.4051 -34.4050 -34.4005 -34.4004 -34.3972 -34.3863 -34.3863
   -34.3856 -34.3853 -34.3773 -34.3772 -34.3672 -34.3671 -34.3563 -34.3561
   -34.3373 -34.3373 -34.3346 -34.3059 -34.2934 -34.2934 -34.2153 -34.2151
   -13.4635 -12.7102 -12.7101 -12.6861 -12.6726 -12.6726 -12.5511 -12.1697
   -11.8947 -11.8947 -11.8474 -11.8459 -11.8459 -11.8117 -11.7195 -11.7195
   -11.7095 -11.7094 -11.6942 -11.6754 -11.6753 -11.6682 -11.5587 -11.4798
   -11.4798 -11.4567 -11.4567 -11.4395 -11.4394 -11.4354 -11.4272  -5.2006
    -5.0980  -5.0979  -4.9847  -4.5273  -4.5248  -4.5248  -4.4949  -4.4743
    -4.4743  -4.4265  -4.4096  -4.4096  -4.3878  -4.3878  -4.3674  -4.3120
    -4.3120  -4.2856  -4.2646  -4.2347  -4.2347  -4.1430  -3.9423  -3.9423
    -3.4818  -3.4818  -3.4374  -3.3175  -3.2613  -3.2495  -3.2495  -3.1809
    -3.1809  -3.0898  -3.0509  -3.0407  -3.0407  -3.0322  -3.0321  -2.9946
    -2.9730  -2.9730  -2.8490  -2.8490  -2.7261  -2.6699  -2.6699  -2.6398
    -2.6139  -2.6139  -2.5888  -2.4512  -2.4424  -2.4424  -2.3215  -2.3215
    -2.2968  -2.2455  -2.1603  -2.1603  -2.0314  -2.0314  -1.9350  -1.9223
    -1.9223  -1.9039  -1.6022  -1.6022  -1.2946  -1.2904  -1.2904  -1.2869
    -1.2729  -1.2729  -1.1844  -1.1590  -1.1077  -1.1077  -1.0602  -1.0601
    -1.0350  -1.0016  -1.0016  -0.9172  -0.8486  -0.8486  -0.7947  -0.7401
    -0.7401  -0.5405  -0.5405  -0.4561  -0.2447  -0.1677  -0.1677  -0.1353
    -0.1228  -0.1199  -0.1199  -0.0464  -0.0463  -0.0032  -0.0032   0.0254
     0.0366   0.0774   0.0775   0.4359   0.6833   1.7419   1.7419   2.6690
     2.6853   2.6919   2.6919   2.7268   2.7268   2.7366   2.7466   2.7466
     2.7720   2.7720   2.8076   2.8146   2.8147   2.8649   2.9130   2.9220
     2.9220   2.9759   3.1583   3.1583   3.2737   3.2935   3.2935   3.3256
     3.3256   3.3435   3.3550   3.3550   3.3860   3.4184   3.4184   3.4550
     3.4550   3.4613   3.5095   3.5095   3.5953   3.6602

     occupation numbers 
     1.0000   1.0000   1.0000   1.0000   1.0000   1.0000   1.0000   1.0000
     1.0000   1.0000   1.0000   1.0000   1.0000   1.0000   1.0000   1.0000
     1.0000   1.0000   1.0000   1.0000   1.0000   1.0000   1.0000   1.0000
     1.0000   1.0000   1.0000   1.0000   1.0000   1.0000   1.0000   1.0000
     1.0000   1.0000   1.0000   1.0000   1.0000   1.0000   1.0000   1.0000
     1.0000   1.0000   1.0000   1.0000   1.0000   1.0000   1.0000   1.0000
     1.0000   1.0000   1.0000   1.0000   1.0000   1.0000   1.0000   1.0000
     1.0000   1.0000   1.0000   1.0000   1.0000   1.0000   1.0000   1.0000
     1.0000   1.0000   1.0000   1.0000   1.0000   1.0000   1.0000   1.0000
     1.0000   1.0000   1.0000   1.0000   1.0000   1.0000   1.0000   1.0000
     1.0000   1.0000   1.0000   1.0000   1.0000   1.0000   1.0000   1.0000
     1.0000   1.0000   1.0000   1.0000   1.0000   1.0000   1.0000   1.0000
     1.0000   1.0000   1.0000   1.0000   1.0000   1.0000   1.0000   1.0000
     1.0000   1.0000   1.0000   1.0000   1.0000   1.0000   1.0000   1.0000
     1.0000   1.0000   1.0000   1.0000   1.0000   1.0000   1.0000   1.0000
     1.0000   1.0000   1.0000   1.0000   1.0000   1.0000   1.0000   1.0000
     1.0000   1.0000   1.0000   1.0000   1.0000   1.0000   1.0000   1.0000
     1.0000   1.0000   1.0000   1.0000   1.0000   1.0000   1.0000   1.0000
     1.0000   1.0000   1.0000   1.0000   1.0000   1.0000   1.0000   1.0000
     1.0000   1.0000   1.0000   1.0000   1.0000   1.0000   1.0000   1.0000
     1.0000   1.0000   1.0000   1.0000   1.0000   1.0000   1.0000   1.0000
     1.0000   1.0000   1.0000   1.0000   1.0000   1.0000   1.0000   1.0000
     1.0000   1.0000   1.0000   1.0000   1.0000   1.0000   1.0000   1.0000
     1.0000   1.0000   1.0000   1.0000   1.0000   1.0000   1.0000   1.0000
     1.0000   1.0000   1.0000   1.0000   1.0000   1.0000   1.0000   1.0000
     1.0000   1.0000   1.0000   1.0000   0.9992   0.0002   0.0002   0.0000
     0.0000   0.0000   0.0000   0.0000   0.0000   0.0000   0.0000   0.0000
     0.0000   0.0000   0.0000   0.0000   0.0000   0.0000   0.0000   0.0000
     0.0000   0.0000   0.0000   0.0000   0.0000   0.0000   0.0000   0.0000
     0.0000   0.0000   0.0000   0.0000   0.0000   0.0000   0.0000   0.0000
     0.0000   0.0000   0.0000   0.0000   0.0000   0.0000

          k = 0.0000 0.1925 0.0000 (126305 PWs)   bands (ev):

   -60.3631 -60.3563 -60.3559 -60.3446 -60.3380 -60.3378 -60.3320 -60.3095
   -60.3095 -60.3076 -60.3002 -60.3001 -60.2963 -60.2915 -60.2755 -60.2754
   -34.6587 -34.6566 -34.6138 -34.5994 -34.5914 -34.5887 -34.5693 -34.5616
   -34.5323 -34.5084 -34.4916 -34.4832 -34.4749 -34.4679 -34.4560 -34.4539
   -34.4524 -34.4442 -34.4439 -34.4397 -34.4350 -34.4291 -34.4282 -34.4241
   -34.4210 -34.4053 -34.4053 -34.4032 -34.3970 -34.3949 -34.3876 -34.3873
   -34.3851 -34.3779 -34.3775 -34.3730 -34.3679 -34.3672 -34.3562 -34.3561
   -34.3415 -34.3399 -34.3343 -34.3062 -34.2970 -34.2936 -34.2175 -34.2155
   -13.4388 -12.8938 -12.7912 -12.7477 -12.5585 -12.5123 -12.4247 -12.1599
   -11.9502 -11.9176 -11.8865 -11.8620 -11.8454 -11.8112 -11.7858 -11.7626
   -11.7165 -11.7086 -11.6812 -11.6776 -11.6248 -11.5799 -11.5471 -11.5179
   -11.4997 -11.4823 -11.4673 -11.4452 -11.4379 -11.4034 -11.3839  -5.1634
    -5.0645  -5.0638  -4.9552  -4.5842  -4.5503  -4.5487  -4.5338  -4.5196
    -4.4891  -4.4695  -4.4410  -4.4282  -4.4220  -4.4060  -4.3881  -4.3880
    -4.3005  -4.2677  -4.2509  -4.1636  -4.0950  -4.0863  -3.9109  -3.8893
    -3.4687  -3.4682  -3.4186  -3.3331  -3.3030  -3.2764  -3.2746  -3.1921
    -3.1631  -3.1604  -3.1300  -3.1079  -3.0985  -3.0842  -3.0765  -3.0088
    -3.0040  -2.8985  -2.7596  -2.7525  -2.6922  -2.6769  -2.6441  -2.6417
    -2.5939  -2.5875  -2.5609  -2.5559  -2.5412  -2.3936  -2.2977  -2.2927
    -2.1616  -2.1513  -2.1128  -2.0988  -2.0642  -2.0158  -1.9989  -1.9728
    -1.9264  -1.8008  -1.6350  -1.5982  -1.4350  -1.4128  -1.3173  -1.2943
    -1.2472  -1.2421  -1.2238  -1.2091  -1.1492  -1.1460  -1.0689  -1.0624
    -1.0200  -0.9642  -0.9117  -0.9040  -0.8229  -0.8005  -0.7503  -0.6735
    -0.6630  -0.6119  -0.6032  -0.5136  -0.3294  -0.2623  -0.2276  -0.1562
    -0.1313  -0.1259  -0.0507  -0.0373  -0.0302   0.0136   0.0142   0.0361
     0.1122   0.1857   0.1909   0.4408   0.6669   1.7419   1.7471   2.5696
     2.5841   2.6820   2.6896   2.7119   2.7179   2.7226   2.7314   2.7581
     2.7625   2.7864   2.7936   2.8261   2.8301   2.8658   2.8938   2.9649
     2.9714   3.0049   3.1112   3.1171   3.1877   3.2227   3.2408   3.2533
     3.2827   3.2894   3.3209   3.3426   3.3685   3.3803   3.4201   3.4371
     3.5147   3.5342   3.6081   3.6275   3.6438   3.6439

     occupation numbers 
     1.0000   1.0000   1.0000   1.0000   1.0000   1.0000   1.0000   1.0000
     1.0000   1.0000   1.0000   1.0000   1.0000   1.0000   1.0000   1.0000
     1.0000   1.0000   1.0000   1.0000   1.0000   1.0000   1.0000   1.0000
     1.0000   1.0000   1.0000   1.0000   1.0000   1.0000   1.0000   1.0000
     1.0000   1.0000   1.0000   1.0000   1.0000   1.0000   1.0000   1.0000
     1.0000   1.0000   1.0000   1.0000   1.0000   1.0000   1.0000   1.0000
     1.0000   1.0000   1.0000   1.0000   1.0000   1.0000   1.0000   1.0000
     1.0000   1.0000   1.0000   1.0000   1.0000   1.0000   1.0000   1.0000
     1.0000   1.0000   1.0000   1.0000   1.0000   1.0000   1.0000   1.0000
     1.0000   1.0000   1.0000   1.0000   1.0000   1.0000   1.0000   1.0000
     1.0000   1.0000   1.0000   1.0000   1.0000   1.0000   1.0000   1.0000
     1.0000   1.0000   1.0000   1.0000   1.0000   1.0000   1.0000   1.0000
     1.0000   1.0000   1.0000   1.0000   1.0000   1.0000   1.0000   1.0000
     1.0000   1.0000   1.0000   1.0000   1.0000   1.0000   1.0000   1.0000
     1.0000   1.0000   1.0000   1.0000   1.0000   1.0000   1.0000   1.0000
     1.0000   1.0000   1.0000   1.0000   1.0000   1.0000   1.0000   1.0000
     1.0000   1.0000   1.0000   1.0000   1.0000   1.0000   1.0000   1.0000
     1.0000   1.0000   1.0000   1.0000   1.0000   1.0000   1.0000   1.0000
     1.0000   1.0000   1.0000   1.0000   1.0000   1.0000   1.0000   1.0000
     1.0000   1.0000   1.0000   1.0000   1.0000   1.0000   1.0000   1.0000
     1.0000   1.0000   1.0000   1.0000   1.0000   1.0000   1.0000   1.0000
     1.0000   1.0000   1.0000   1.0000   1.0000   1.0000   1.0000   1.0000
     1.0000   1.0000   1.0000   1.0000   1.0000   1.0000   1.0000   1.0000
     1.0000   1.0000   1.0000   1.0000   1.0000   1.0000   1.0000   1.0000
     1.0000   1.0000   1.0000   1.0000   1.0000   1.0000   1.0000   1.0000
     1.0000   1.0000   1.0000   1.0000   0.9994   0.0002   0.0002   0.0000
     0.0000   0.0000   0.0000   0.0000   0.0000   0.0000   0.0000   0.0000
     0.0000   0.0000   0.0000   0.0000   0.0000   0.0000   0.0000   0.0000
     0.0000   0.0000   0.0000   0.0000   0.0000   0.0000   0.0000   0.0000
     0.0000   0.0000   0.0000   0.0000   0.0000   0.0000   0.0000   0.0000
     0.0000   0.0000   0.0000   0.0000   0.0000   0.0000

          k = 0.0000 0.3849 0.0000 (126328 PWs)   bands (ev):

   -60.3626 -60.3571 -60.3560 -60.3444 -60.3384 -60.3378 -60.3318 -60.3094
   -60.3093 -60.3075 -60.3005 -60.3003 -60.2961 -60.2914 -60.2756 -60.2754
   -34.6514 -34.6431 -34.6101 -34.6064 -34.5950 -34.5906 -34.5714 -34.5539
   -34.5488 -34.5335 -34.5100 -34.4847 -34.4758 -34.4731 -34.4586 -34.4562
   -34.4528 -34.4420 -34.4335 -34.4311 -34.4307 -34.4276 -34.4260 -34.4122
   -34.4081 -34.4057 -34.4041 -34.3970 -34.3919 -34.3909 -34.3888 -34.3853
   -34.3829 -34.3778 -34.3765 -34.3763 -34.3663 -34.3567 -34.3561 -34.3524
   -34.3498 -34.3452 -34.3358 -34.3073 -34.3069 -34.2935 -34.2223 -34.2161
   -13.3662 -13.0840 -12.8513 -12.7989 -12.4013 -12.3668 -12.2137 -12.1318
   -12.0436 -12.0367 -11.9913 -11.9348 -11.8966 -11.8250 -11.7523 -11.7375
   -11.7054 -11.6828 -11.6815 -11.6691 -11.6308 -11.5936 -11.5608 -11.5213
   -11.5007 -11.4769 -11.4644 -11.4457 -11.4383 -11.3734 -11.3476  -5.0581
    -4.9707  -4.9673  -4.8703  -4.7242  -4.6762  -4.6593  -4.6166  -4.6069
    -4.5747  -4.5091  -4.4999  -4.4389  -4.4229  -4.4068  -4.3627  -4.3547
    -4.3072  -4.2481  -4.2263  -4.1698  -4.0311  -3.9359  -3.7422  -3.7119
    -3.5325  -3.4303  -3.4276  -3.3751  -3.3302  -3.3088  -3.3071  -3.2875
    -3.2623  -3.2455  -3.2383  -3.2010  -3.1547  -3.1518  -3.1250  -3.0073
    -2.9342  -2.7977  -2.6949  -2.6827  -2.6539  -2.6369  -2.6271  -2.6267
    -2.5981  -2.5613  -2.5430  -2.4815  -2.4403  -2.4110  -2.3806  -2.3251
    -2.3085  -2.2394  -2.1084  -2.0832  -2.0147  -1.9376  -1.8527  -1.7591
    -1.7490  -1.6843  -1.6789  -1.5772  -1.5748  -1.4686  -1.3840  -1.3649
    -1.3191  -1.3113  -1.2281  -1.2214  -1.1727  -1.1661  -1.1367  -1.1240
    -1.0136  -1.0044  -0.9508  -0.9076  -0.8182  -0.7883  -0.7485  -0.6811
    -0.6186  -0.6059  -0.5018  -0.4650  -0.3845  -0.3111  -0.2702  -0.2341
    -0.2000  -0.1953  -0.0092   0.0058   0.0178   0.0391   0.0516   0.0661
     0.2930   0.3212   0.3299   0.4546   0.6181   1.7418   1.7606   2.4269
     2.4571   2.6065   2.6342   2.6568   2.6880   2.6954   2.7197   2.7404
     2.7580   2.7738   2.8040   2.8429   2.8728   2.8996   2.9323   2.9962
     3.0082   3.0443   3.0645   3.0954   3.1032   3.1217   3.1479   3.1759
     3.2020   3.2525   3.2725   3.3015   3.3422   3.3516   3.3703   3.4666
     3.5103   3.5354   3.5805   3.6567   3.7405   3.7438

     occupation numbers 
     1.0000   1.0000   1.0000   1.0000   1.0000   1.0000   1.0000   1.0000
     1.0000   1.0000   1.0000   1.0000   1.0000   1.0000   1.0000   1.0000
     1.0000   1.0000   1.0000   1.0000   1.0000   1.0000   1.0000   1.0000
     1.0000   1.0000   1.0000   1.0000   1.0000   1.0000   1.0000   1.0000
     1.0000   1.0000   1.0000   1.0000   1.0000   1.0000   1.0000   1.0000
     1.0000   1.0000   1.0000   1.0000   1.0000   1.0000   1.0000   1.0000
     1.0000   1.0000   1.0000   1.0000   1.0000   1.0000   1.0000   1.0000
     1.0000   1.0000   1.0000   1.0000   1.0000   1.0000   1.0000   1.0000
     1.0000   1.0000   1.0000   1.0000   1.0000   1.0000   1.0000   1.0000
     1.0000   1.0000   1.0000   1.0000   1.0000   1.0000   1.0000   1.0000
     1.0000   1.0000   1.0000   1.0000   1.0000   1.0000   1.0000   1.0000
     1.0000   1.0000   1.0000   1.0000   1.0000   1.0000   1.0000   1.0000
     1.0000   1.0000   1.0000   1.0000   1.0000   1.0000   1.0000   1.0000
     1.0000   1.0000   1.0000   1.0000   1.0000   1.0000   1.0000   1.0000
     1.0000   1.0000   1.0000   1.0000   1.0000   1.0000   1.0000   1.0000
     1.0000   1.0000   1.0000   1.0000   1.0000   1.0000   1.0000   1.0000
     1.0000   1.0000   1.0000   1.0000   1.0000   1.0000   1.0000   1.0000
     1.0000   1.0000   1.0000   1.0000   1.0000   1.0000   1.0000   1.0000
     1.0000   1.0000   1.0000   1.0000   1.0000   1.0000   1.0000   1.0000
     1.0000   1.0000   1.0000   1.0000   1.0000   1.0000   1.0000   1.0000
     1.0000   1.0000   1.0000   1.0000   1.0000   1.0000   1.0000   1.0000
     1.0000   1.0000   1.0000   1.0000   1.0000   1.0000   1.0000   1.0000
     1.0000   1.0000   1.0000   1.0000   1.0000   1.0000   1.0000   1.0000
     1.0000   1.0000   1.0000   1.0000   1.0000   1.0000   1.0000   1.0000
     1.0000   1.0000   1.0000   1.0000   1.0000   1.0000   1.0000   1.0000
     1.0000   1.0000   1.0000   1.0000   0.9997   0.0002   0.0002   0.0000
     0.0000   0.0000   0.0000   0.0000   0.0000   0.0000   0.0000   0.0000
     0.0000   0.0000   0.0000   0.0000   0.0000   0.0000   0.0000   0.0000
     0.0000   0.0000   0.0000   0.0000   0.0000   0.0000   0.0000   0.0000
     0.0000   0.0000   0.0000   0.0000   0.0000   0.0000   0.0000   0.0000
     0.0000   0.0000   0.0000   0.0000   0.0000   0.0000

          k = 0.0000-0.5774 0.0000 (126288 PWs)   bands (ev):

   -60.3623 -60.3575 -60.3560 -60.3442 -60.3386 -60.3377 -60.3316 -60.3094
   -60.3092 -60.3075 -60.3007 -60.3004 -60.2960 -60.2913 -60.2756 -60.2754
   -34.6459 -34.6289 -34.6176 -34.6143 -34.5938 -34.5896 -34.5692 -34.5579
   -34.5480 -34.5457 -34.5198 -34.4809 -34.4799 -34.4720 -34.4654 -34.4595
   -34.4530 -34.4428 -34.4326 -34.4275 -34.4253 -34.4217 -34.4213 -34.4076
   -34.4055 -34.4052 -34.3986 -34.3966 -34.3965 -34.3905 -34.3896 -34.3890
   -34.3815 -34.3774 -34.3687 -34.3676 -34.3672 -34.3582 -34.3565 -34.3551
   -34.3550 -34.3377 -34.3369 -34.3159 -34.3081 -34.2932 -34.2248 -34.2164
   -13.2685 -13.2219 -12.8717 -12.8172 -12.2459 -12.2291 -12.2224 -12.1580
   -12.0967 -12.0768 -12.0175 -11.9530 -11.9431 -11.9007 -11.7091 -11.7050
   -11.6996 -11.6745 -11.6660 -11.6639 -11.6582 -11.6023 -11.5962 -11.5505
   -11.4796 -11.4614 -11.4579 -11.4427 -11.4384 -11.3624 -11.3347  -4.9249
    -4.8776  -4.8669  -4.8475  -4.7885  -4.7842  -4.7603  -4.7101  -4.6596
    -4.6574  -4.4948  -4.4936  -4.4514  -4.4369  -4.4132  -4.3423  -4.3285
    -4.2981  -4.2452  -4.2295  -4.1440  -4.0345  -3.8109  -3.7347  -3.5668
    -3.5074  -3.4373  -3.4367  -3.3823  -3.3711  -3.3630  -3.3339  -3.3317
    -3.3056  -3.2948  -3.2807  -3.2396  -3.1974  -3.1733  -3.1291  -2.9908
    -2.9558  -2.6688  -2.6593  -2.6332  -2.6300  -2.6012  -2.5874  -2.5719
    -2.5644  -2.5577  -2.5514  -2.5266  -2.5191  -2.4292  -2.4288  -2.3924
    -2.3587  -2.2306  -2.1077  -2.0373  -2.0220  -1.9290  -1.8558  -1.8284
    -1.6920  -1.5080  -1.4955  -1.4375  -1.4056  -1.4014  -1.3964  -1.3738
    -1.3602  -1.3528  -1.3286  -1.3156  -1.2901  -1.2143  -1.1908  -1.1727
    -1.1654  -1.1644  -0.9595  -0.9296  -0.8083  -0.7244  -0.7029  -0.6548
    -0.6355  -0.5986  -0.4403  -0.4146  -0.3565  -0.3162  -0.2954  -0.2702
    -0.2509  -0.2231   0.0035   0.0313   0.0322   0.0497   0.0695   0.0790
     0.3722   0.3800   0.4036   0.4681   0.5708   1.7413   1.7692   2.3630
     2.4023   2.5686   2.5978   2.6101   2.6591   2.6835   2.7167   2.7413
     2.7607   2.7702   2.8059   2.8359   2.8853   2.9955   3.0037   3.0195
     3.0250   3.0417   3.0455   3.0573   3.0617   3.0752   3.0770   3.1309
     3.1451   3.2034   3.2987   3.3026   3.3260   3.3268   3.3446   3.4973
     3.5190   3.5311   3.6210   3.6623   3.6818   3.7451

     occupation numbers 
     1.0000   1.0000   1.0000   1.0000   1.0000   1.0000   1.0000   1.0000
     1.0000   1.0000   1.0000   1.0000   1.0000   1.0000   1.0000   1.0000
     1.0000   1.0000   1.0000   1.0000   1.0000   1.0000   1.0000   1.0000
     1.0000   1.0000   1.0000   1.0000   1.0000   1.0000   1.0000   1.0000
     1.0000   1.0000   1.0000   1.0000   1.0000   1.0000   1.0000   1.0000
     1.0000   1.0000   1.0000   1.0000   1.0000   1.0000   1.0000   1.0000
     1.0000   1.0000   1.0000   1.0000   1.0000   1.0000   1.0000   1.0000
     1.0000   1.0000   1.0000   1.0000   1.0000   1.0000   1.0000   1.0000
     1.0000   1.0000   1.0000   1.0000   1.0000   1.0000   1.0000   1.0000
     1.0000   1.0000   1.0000   1.0000   1.0000   1.0000   1.0000   1.0000
     1.0000   1.0000   1.0000   1.0000   1.0000   1.0000   1.0000   1.0000
     1.0000   1.0000   1.0000   1.0000   1.0000   1.0000   1.0000   1.0000
     1.0000   1.0000   1.0000   1.0000   1.0000   1.0000   1.0000   1.0000
     1.0000   1.0000   1.0000   1.0000   1.0000   1.0000   1.0000   1.0000
     1.0000   1.0000   1.0000   1.0000   1.0000   1.0000   1.0000   1.0000
     1.0000   1.0000   1.0000   1.0000   1.0000   1.0000   1.0000   1.0000
     1.0000   1.0000   1.0000   1.0000   1.0000   1.0000   1.0000   1.0000
     1.0000   1.0000   1.0000   1.0000   1.0000   1.0000   1.0000   1.0000
     1.0000   1.0000   1.0000   1.0000   1.0000   1.0000   1.0000   1.0000
     1.0000   1.0000   1.0000   1.0000   1.0000   1.0000   1.0000   1.0000
     1.0000   1.0000   1.0000   1.0000   1.0000   1.0000   1.0000   1.0000
     1.0000   1.0000   1.0000   1.0000   1.0000   1.0000   1.0000   1.0000
     1.0000   1.0000   1.0000   1.0000   1.0000   1.0000   1.0000   1.0000
     1.0000   1.0000   1.0000   1.0000   1.0000   1.0000   1.0000   1.0000
     1.0000   1.0000   1.0000   1.0000   1.0000   1.0000   1.0000   1.0000
     1.0000   1.0000   1.0000   1.0000   0.9998   0.0002   0.0001   0.0000
     0.0000   0.0000   0.0000   0.0000   0.0000   0.0000   0.0000   0.0000
     0.0000   0.0000   0.0000   0.0000   0.0000   0.0000   0.0000   0.0000
     0.0000   0.0000   0.0000   0.0000   0.0000   0.0000   0.0000   0.0000
     0.0000   0.0000   0.0000   0.0000   0.0000   0.0000   0.0000   0.0000
     0.0000   0.0000   0.0000   0.0000   0.0000   0.0000

          k = 0.1667 0.2887 0.0000 (126343 PWs)   bands (ev):

   -60.3627 -60.3568 -60.3560 -60.3444 -60.3383 -60.3378 -60.3318 -60.3094
   -60.3093 -60.3076 -60.3004 -60.3002 -60.2961 -60.2914 -60.2756 -60.2754
   -34.6535 -34.6475 -34.6081 -34.6043 -34.5992 -34.5826 -34.5762 -34.5591
   -34.5406 -34.5287 -34.5010 -34.4941 -34.4736 -34.4659 -34.4564 -34.4549
   -34.4531 -34.4424 -34.4385 -34.4341 -34.4301 -34.4281 -34.4263 -34.4245
   -34.4066 -34.4048 -34.4025 -34.3968 -34.3940 -34.3906 -34.3879 -34.3868
   -34.3842 -34.3789 -34.3773 -34.3737 -34.3670 -34.3585 -34.3560 -34.3556
   -34.3470 -34.3441 -34.3357 -34.3077 -34.3026 -34.2940 -34.2209 -34.2160
   -13.3901 -12.9931 -12.9552 -12.6427 -12.5767 -12.3172 -12.2997 -12.1412
   -12.0386 -11.9861 -11.9696 -11.8636 -11.8522 -11.8286 -11.7975 -11.7653
   -11.7480 -11.7001 -11.6904 -11.6253 -11.6008 -11.5873 -11.5361 -11.5298
   -11.5035 -11.4945 -11.4884 -11.4468 -11.4059 -11.3976 -11.3514  -5.0918
    -5.0003  -4.9986  -4.8980  -4.6660  -4.6413  -4.6150  -4.5764  -4.5487
    -4.5419  -4.5216  -4.5082  -4.4887  -4.4479  -4.4410  -4.3866  -4.3601
    -4.2944  -4.2338  -4.1994  -4.0970  -4.0523  -3.9818  -3.8803  -3.7087
    -3.4493  -3.4466  -3.4374  -3.4150  -3.3549  -3.3260  -3.2880  -3.2689
    -3.2324  -3.2246  -3.1868  -3.1742  -3.1339  -3.1157  -3.0528  -2.9774
    -2.9359  -2.8892  -2.8213  -2.7772  -2.6913  -2.6663  -2.6235  -2.5997
    -2.5710  -2.5445  -2.5163  -2.4804  -2.3927  -2.3603  -2.3061  -2.2787
    -2.2584  -2.2348  -2.2133  -2.1448  -2.0547  -1.9578  -1.8708  -1.7777
    -1.7433  -1.7420  -1.6471  -1.6189  -1.5964  -1.4699  -1.3835  -1.3391
    -1.3122  -1.2583  -1.2396  -1.2289  -1.1985  -1.1330  -1.1008  -1.0518
    -0.9976  -0.9645  -0.9527  -0.9186  -0.8269  -0.7971  -0.7375  -0.6819
    -0.6224  -0.5913  -0.5462  -0.5260  -0.3527  -0.3395  -0.2288  -0.1970
    -0.1386  -0.1316  -0.1151  -0.0994  -0.0519   0.0650   0.1222   0.1523
     0.2121   0.2201   0.3427   0.4491   0.6339   1.7376   1.7613   2.4061
     2.5931   2.6061   2.6308   2.6678   2.6819   2.7089   2.7236   2.7441
     2.7671   2.7751   2.8094   2.8308   2.8578   2.8802   2.9249   2.9832
     3.0048   3.0416   3.0701   3.1018   3.1360   3.1528   3.1713   3.1795
     3.2171   3.2334   3.2935   3.3025   3.3035   3.3649   3.3814   3.4627
     3.5323   3.5517   3.6338   3.6843   3.7102   3.7229

     occupation numbers 
     1.0000   1.0000   1.0000   1.0000   1.0000   1.0000   1.0000   1.0000
     1.0000   1.0000   1.0000   1.0000   1.0000   1.0000   1.0000   1.0000
     1.0000   1.0000   1.0000   1.0000   1.0000   1.0000   1.0000   1.0000
     1.0000   1.0000   1.0000   1.0000   1.0000   1.0000   1.0000   1.0000
     1.0000   1.0000   1.0000   1.0000   1.0000   1.0000   1.0000   1.0000
     1.0000   1.0000   1.0000   1.0000   1.0000   1.0000   1.0000   1.0000
     1.0000   1.0000   1.0000   1.0000   1.0000   1.0000   1.0000   1.0000
     1.0000   1.0000   1.0000   1.0000   1.0000   1.0000   1.0000   1.0000
     1.0000   1.0000   1.0000   1.0000   1.0000   1.0000   1.0000   1.0000
     1.0000   1.0000   1.0000   1.0000   1.0000   1.0000   1.0000   1.0000
     1.0000   1.0000   1.0000   1.0000   1.0000   1.0000   1.0000   1.0000
     1.0000   1.0000   1.0000   1.0000   1.0000   1.0000   1.0000   1.0000
     1.0000   1.0000   1.0000   1.0000   1.0000   1.0000   1.0000   1.0000
     1.0000   1.0000   1.0000   1.0000   1.0000   1.0000   1.0000   1.0000
     1.0000   1.0000   1.0000   1.0000   1.0000   1.0000   1.0000   1.0000
     1.0000   1.0000   1.0000   1.0000   1.0000   1.0000   1.0000   1.0000
     1.0000   1.0000   1.0000   1.0000   1.0000   1.0000   1.0000   1.0000
     1.0000   1.0000   1.0000   1.0000   1.0000   1.0000   1.0000   1.0000
     1.0000   1.0000   1.0000   1.0000   1.0000   1.0000   1.0000   1.0000
     1.0000   1.0000   1.0000   1.0000   1.0000   1.0000   1.0000   1.0000
     1.0000   1.0000   1.0000   1.0000   1.0000   1.0000   1.0000   1.0000
     1.0000   1.0000   1.0000   1.0000   1.0000   1.0000   1.0000   1.0000
     1.0000   1.0000   1.0000   1.0000   1.0000   1.0000   1.0000   1.0000
     1.0000   1.0000   1.0000   1.0000   1.0000   1.0000   1.0000   1.0000
     1.0000   1.0000   1.0000   1.0000   1.0000   1.0000   1.0000   1.0000
     1.0000   1.0000   1.0000   1.0000   0.9996   0.0002   0.0002   0.0000
     0.0000   0.0000   0.0000   0.0000   0.0000   0.0000   0.0000   0.0000
     0.0000   0.0000   0.0000   0.0000   0.0000   0.0000   0.0000   0.0000
     0.0000   0.0000   0.0000   0.0000   0.0000   0.0000   0.0000   0.0000
     0.0000   0.0000   0.0000   0.0000   0.0000   0.0000   0.0000   0.0000
     0.0000   0.0000   0.0000   0.0000   0.0000   0.0000

          k = 0.1667 0.4811 0.0000 (126406 PWs)   bands (ev):

   -60.3623 -60.3574 -60.3561 -60.3442 -60.3386 -60.3378 -60.3316 -60.3094
   -60.3092 -60.3075 -60.3007 -60.3005 -60.2960 -60.2913 -60.2756 -60.2754
   -34.6457 -34.6328 -34.6153 -34.6059 -34.6005 -34.5870 -34.5731 -34.5614
   -34.5556 -34.5311 -34.5168 -34.4973 -34.4722 -34.4718 -34.4589 -34.4547
   -34.4489 -34.4423 -34.4414 -34.4328 -34.4278 -34.4249 -34.4206 -34.4080
   -34.4065 -34.4043 -34.4016 -34.3978 -34.3916 -34.3898 -34.3872 -34.3835
   -34.3798 -34.3774 -34.3725 -34.3708 -34.3638 -34.3572 -34.3564 -34.3552
   -34.3535 -34.3418 -34.3369 -34.3158 -34.3068 -34.2942 -34.2243 -34.2168
   -13.2963 -13.1514 -13.0121 -12.6497 -12.4313 -12.2424 -12.1609 -12.1139
   -12.0852 -12.0496 -12.0063 -11.9756 -11.8927 -11.8497 -11.8110 -11.7701
   -11.7513 -11.6865 -11.6422 -11.6233 -11.6083 -11.5818 -11.5676 -11.5467
   -11.5067 -11.5007 -11.4737 -11.4221 -11.4087 -11.3772 -11.3301  -4.9614
    -4.8878  -4.8804  -4.7949  -4.7835  -4.7544  -4.7128  -4.6825  -4.6411
    -4.6262  -4.6033  -4.5554  -4.5014  -4.4855  -4.4127  -4.3635  -4.3492
    -4.2729  -4.2541  -4.1017  -4.0535  -3.9679  -3.8757  -3.7800  -3.6585
    -3.5749  -3.4198  -3.4071  -3.3831  -3.3533  -3.3405  -3.3238  -3.3086
    -3.2956  -3.2797  -3.2667  -3.2323  -3.2276  -3.1414  -3.1010  -3.0031
    -2.9151  -2.8190  -2.7429  -2.6956  -2.6583  -2.6275  -2.5979  -2.5772
    -2.5481  -2.5132  -2.4987  -2.4795  -2.4514  -2.4267  -2.3951  -2.3787
    -2.2997  -2.2571  -2.1587  -2.0332  -1.9999  -1.8648  -1.8147  -1.7709
    -1.6947  -1.6716  -1.6032  -1.5004  -1.4802  -1.4474  -1.3940  -1.3608
    -1.3537  -1.3393  -1.3056  -1.2616  -1.2210  -1.2102  -1.1624  -1.1230
    -1.0871  -1.0305  -0.9939  -0.9684  -0.8914  -0.7974  -0.7611  -0.6914
    -0.5740  -0.5501  -0.4544  -0.4355  -0.3286  -0.3021  -0.2610  -0.2410
    -0.2207  -0.1899  -0.1093  -0.0940  -0.0563   0.1093   0.1473   0.2160
     0.2872   0.3586   0.4442   0.4649   0.5773   1.7313   1.7802   2.2819
     2.5271   2.5364   2.5980   2.6271   2.6671   2.6849   2.7086   2.7226
     2.7622   2.7884   2.7975   2.8292   2.8890   2.9546   2.9836   3.0018
     3.0244   3.0415   3.0593   3.0730   3.0848   3.1047   3.1115   3.1249
     3.1560   3.1676   3.1937   3.2389   3.3025   3.3444   3.4119   3.4487
     3.5313   3.5843   3.6742   3.7151   3.7548   3.7655

     occupation numbers 
     1.0000   1.0000   1.0000   1.0000   1.0000   1.0000   1.0000   1.0000
     1.0000   1.0000   1.0000   1.0000   1.0000   1.0000   1.0000   1.0000
     1.0000   1.0000   1.0000   1.0000   1.0000   1.0000   1.0000   1.0000
     1.0000   1.0000   1.0000   1.0000   1.0000   1.0000   1.0000   1.0000
     1.0000   1.0000   1.0000   1.0000   1.0000   1.0000   1.0000   1.0000
     1.0000   1.0000   1.0000   1.0000   1.0000   1.0000   1.0000   1.0000
     1.0000   1.0000   1.0000   1.0000   1.0000   1.0000   1.0000   1.0000
     1.0000   1.0000   1.0000   1.0000   1.0000   1.0000   1.0000   1.0000
     1.0000   1.0000   1.0000   1.0000   1.0000   1.0000   1.0000   1.0000
     1.0000   1.0000   1.0000   1.0000   1.0000   1.0000   1.0000   1.0000
     1.0000   1.0000   1.0000   1.0000   1.0000   1.0000   1.0000   1.0000
     1.0000   1.0000   1.0000   1.0000   1.0000   1.0000   1.0000   1.0000
     1.0000   1.0000   1.0000   1.0000   1.0000   1.0000   1.0000   1.0000
     1.0000   1.0000   1.0000   1.0000   1.0000   1.0000   1.0000   1.0000
     1.0000   1.0000   1.0000   1.0000   1.0000   1.0000   1.0000   1.0000
     1.0000   1.0000   1.0000   1.0000   1.0000   1.0000   1.0000   1.0000
     1.0000   1.0000   1.0000   1.0000   1.0000   1.0000   1.0000   1.0000
     1.0000   1.0000   1.0000   1.0000   1.0000   1.0000   1.0000   1.0000
     1.0000   1.0000   1.0000   1.0000   1.0000   1.0000   1.0000   1.0000
     1.0000   1.0000   1.0000   1.0000   1.0000   1.0000   1.0000   1.0000
     1.0000   1.0000   1.0000   1.0000   1.0000   1.0000   1.0000   1.0000
     1.0000   1.0000   1.0000   1.0000   1.0000   1.0000   1.0000   1.0000
     1.0000   1.0000   1.0000   1.0000   1.0000   1.0000   1.0000   1.0000
     1.0000   1.0000   1.0000   1.0000   1.0000   1.0000   1.0000   1.0000
     1.0000   1.0000   1.0000   1.0000   1.0000   1.0000   1.0000   1.0000
     1.0000   1.0000   1.0000   1.0000   0.9998   0.0002   0.0001   0.0000
     0.0000   0.0000   0.0000   0.0000   0.0000   0.0000   0.0000   0.0000
     0.0000   0.0000   0.0000   0.0000   0.0000   0.0000   0.0000   0.0000
     0.0000   0.0000   0.0000   0.0000   0.0000   0.0000   0.0000   0.0000
     0.0000   0.0000   0.0000   0.0000   0.0000   0.0000   0.0000   0.0000
     0.0000   0.0000   0.0000   0.0000   0.0000   0.0000

          k = 0.3333 0.5774 0.0000 (126429 PWs)   bands (ev):

   -60.3621 -60.3576 -60.3561 -60.3442 -60.3386 -60.3378 -60.3316 -60.3094
   -60.3091 -60.3075 -60.3007 -60.3006 -60.2959 -60.2913 -60.2756 -60.2754
   -34.6410 -34.6289 -34.6168 -34.6038 -34.5970 -34.5932 -34.5825 -34.5618
   -34.5565 -34.5249 -34.5222 -34.5036 -34.4712 -34.4682 -34.4588 -34.4565
   -34.4558 -34.4411 -34.4324 -34.4280 -34.4262 -34.4244 -34.4230 -34.4218
   -34.4073 -34.4038 -34.3978 -34.3917 -34.3914 -34.3875 -34.3875 -34.3829
   -34.3777 -34.3760 -34.3719 -34.3639 -34.3614 -34.3590 -34.3578 -34.3559
   -34.3550 -34.3438 -34.3320 -34.3239 -34.3068 -34.2950 -34.2249 -34.2174
   -13.2024 -13.1915 -13.1275 -12.4789 -12.4739 -12.3885 -12.0804 -12.0575
   -12.0513 -11.9921 -11.9860 -11.9627 -11.9545 -11.9528 -11.8341 -11.7854
   -11.7760 -11.7224 -11.6013 -11.5938 -11.5651 -11.5635 -11.5618 -11.5575
   -11.5533 -11.5371 -11.4689 -11.3986 -11.3940 -11.3909 -11.3218  -4.8515
    -4.7966  -4.7942  -4.7831  -4.7789  -4.7649  -4.7576  -4.7565  -4.6888
    -4.6853  -4.6741  -4.6081  -4.5952  -4.4886  -4.4384  -4.3671  -4.3161
    -4.2643  -4.2592  -3.9483  -3.9327  -3.8701  -3.8524  -3.8512  -3.7573
    -3.6948  -3.4440  -3.3693  -3.3666  -3.3642  -3.3526  -3.3266  -3.3020
    -3.2945  -3.2862  -3.2829  -3.2424  -3.1787  -3.1785  -3.0433  -3.0209
    -2.9563  -2.8151  -2.7350  -2.6342  -2.6218  -2.6005  -2.5905  -2.5783
    -2.5714  -2.5590  -2.5358  -2.5174  -2.5171  -2.5133  -2.4546  -2.3832
    -2.1671  -2.1641  -2.0517  -2.0196  -2.0150  -1.7967  -1.7756  -1.7447
    -1.7368  -1.6822  -1.5937  -1.5385  -1.5056  -1.4940  -1.4767  -1.4219
    -1.3353  -1.3059  -1.2665  -1.2214  -1.1816  -1.0800  -1.0775  -1.0699
    -1.0633  -1.0553  -1.0524  -1.0513  -1.0400  -1.0253  -0.7704  -0.6608
    -0.5581  -0.4856  -0.4496  -0.4057  -0.2805  -0.2429  -0.2428  -0.2217
    -0.2132  -0.2049  -0.1809  -0.1638  -0.1220   0.1645   0.1734   0.2504
     0.3377   0.3818   0.4254   0.5133   0.5495   1.7230   1.7940   2.2159
     2.4956   2.5752   2.5822   2.6386   2.6544   2.6597   2.6992   2.7272
     2.7417   2.7900   2.7940   2.8164   2.9575   2.9648   2.9909   2.9971
     3.0395   3.0449   3.0470   3.0636   3.0679   3.0704   3.0779   3.1105
     3.1350   3.1468   3.1834   3.2122   3.2502   3.2923   3.3723   3.5499
     3.5564   3.6596   3.6775   3.6842   3.7696   3.8107

     occupation numbers 
     1.0000   1.0000   1.0000   1.0000   1.0000   1.0000   1.0000   1.0000
     1.0000   1.0000   1.0000   1.0000   1.0000   1.0000   1.0000   1.0000
     1.0000   1.0000   1.0000   1.0000   1.0000   1.0000   1.0000   1.0000
     1.0000   1.0000   1.0000   1.0000   1.0000   1.0000   1.0000   1.0000
     1.0000   1.0000   1.0000   1.0000   1.0000   1.0000   1.0000   1.0000
     1.0000   1.0000   1.0000   1.0000   1.0000   1.0000   1.0000   1.0000
     1.0000   1.0000   1.0000   1.0000   1.0000   1.0000   1.0000   1.0000
     1.0000   1.0000   1.0000   1.0000   1.0000   1.0000   1.0000   1.0000
     1.0000   1.0000   1.0000   1.0000   1.0000   1.0000   1.0000   1.0000
     1.0000   1.0000   1.0000   1.0000   1.0000   1.0000   1.0000   1.0000
     1.0000   1.0000   1.0000   1.0000   1.0000   1.0000   1.0000   1.0000
     1.0000   1.0000   1.0000   1.0000   1.0000   1.0000   1.0000   1.0000
     1.0000   1.0000   1.0000   1.0000   1.0000   1.0000   1.0000   1.0000
     1.0000   1.0000   1.0000   1.0000   1.0000   1.0000   1.0000   1.0000
     1.0000   1.0000   1.0000   1.0000   1.0000   1.0000   1.0000   1.0000
     1.0000   1.0000   1.0000   1.0000   1.0000   1.0000   1.0000   1.0000
     1.0000   1.0000   1.0000   1.0000   1.0000   1.0000   1.0000   1.0000
     1.0000   1.0000   1.0000   1.0000   1.0000   1.0000   1.0000   1.0000
     1.0000   1.0000   1.0000   1.0000   1.0000   1.0000   1.0000   1.0000
     1.0000   1.0000   1.0000   1.0000   1.0000   1.0000   1.0000   1.0000
     1.0000   1.0000   1.0000   1.0000   1.0000   1.0000   1.0000   1.0000
     1.0000   1.0000   1.0000   1.0000   1.0000   1.0000   1.0000   1.0000
     1.0000   1.0000   1.0000   1.0000   1.0000   1.0000   1.0000   1.0000
     1.0000   1.0000   1.0000   1.0000   1.0000   1.0000   1.0000   1.0000
     1.0000   1.0000   1.0000   1.0000   1.0000   1.0000   1.0000   1.0000
     1.0000   1.0000   1.0000   0.9999   0.9999   0.0003   0.0001   0.0000
     0.0000   0.0000   0.0000   0.0000   0.0000   0.0000   0.0000   0.0000
     0.0000   0.0000   0.0000   0.0000   0.0000   0.0000   0.0000   0.0000
     0.0000   0.0000   0.0000   0.0000   0.0000   0.0000   0.0000   0.0000
     0.0000   0.0000   0.0000   0.0000   0.0000   0.0000   0.0000   0.0000
     0.0000   0.0000   0.0000   0.0000   0.0000   0.0000

     the Fermi energy is     1.1663 ev

!    total energy              =   -2979.42712506 Ry
     estimated scf accuracy    <          8.1E-11 Ry
     smearing contrib. (-TS)   =      -0.00007124 Ry
     internal energy E=F+TS    =   -2979.42705382 Ry

     The total energy is F=E-TS. E is the sum of the following terms:
     one-electron contribution =  -11135.40293336 Ry
     hartree contribution      =    5595.35232483 Ry
     xc contribution           =    -571.48066375 Ry
     ewald contribution        =    3132.10421846 Ry

     total magnetization       =     0.00 Bohr mag/cell
     absolute magnetization    =     0.00 Bohr mag/cell

     convergence has been achieved in  12 iterations

     negative rho (up, down):  1.433E-03 1.433E-03

     Forces acting on atoms (cartesian axes, Ry/au):

     atom    1 type  1   force =    -0.00007984   -0.00008285    0.00014020
     atom    2 type  1   force =    -0.00011167   -0.00002772    0.00014020
     atom    3 type  1   force =     0.00000000    0.00002143   -0.00001114
     atom    4 type  1   force =     0.00001856   -0.00001072   -0.00001114
     atom    5 type  1   force =    -0.00000000    0.00009937    0.00006463
     atom    6 type  1   force =     0.00016199    0.00009352   -0.00060126
     atom    7 type  1   force =     0.00008606   -0.00004969    0.00006463
     atom    8 type  1   force =    -0.00001856   -0.00001072   -0.00001114
     atom    9 type  1   force =     0.00007984   -0.00008285    0.00014020
     atom   10 type  1   force =    -0.00016199    0.00009352   -0.00060126
     atom   11 type  1   force =     0.00000000   -0.00018705   -0.00060126
     atom   12 type  1   force =    -0.00003183    0.00011057    0.00014020
     atom   13 type  1   force =     0.00000000    0.00000000    0.00058654
     atom   14 type  1   force =     0.00011167   -0.00002772    0.00014020
     atom   15 type  1   force =    -0.00008606   -0.00004969    0.00006463
     atom   16 type  1   force =     0.00003183    0.00011057    0.00014020
     atom   17 type  2   force =     0.00037963    0.00021918    0.00036624
     atom   18 type  2   force =    -0.00000000   -0.00009084    0.00016690
     atom   19 type  2   force =    -0.00046471   -0.00026830   -0.00009114
     atom   20 type  2   force =    -0.00007867    0.00004542    0.00016690
     atom   21 type  2   force =    -0.00015368   -0.00030572   -0.00019961
     atom   22 type  2   force =    -0.00034160    0.00001977   -0.00019961
     atom   23 type  2   force =     0.00046471   -0.00026830   -0.00009114
     atom   24 type  2   force =     0.00000000    0.00053660   -0.00009114
     atom   25 type  2   force =     0.00015368   -0.00030572   -0.00019961
     atom   26 type  2   force =    -0.00018792    0.00028595   -0.00019961
     atom   27 type  2   force =     0.00007867    0.00004542    0.00016690
     atom   28 type  2   force =    -0.00037963    0.00021918    0.00036624
     atom   29 type  2   force =     0.00034160    0.00001977   -0.00019961
     atom   30 type  2   force =     0.00018792    0.00028595   -0.00019961
     atom   31 type  2   force =     0.00000000   -0.00043836    0.00036624
     atom   32 type  2   force =     0.00015507    0.00008953    0.00038427
     atom   33 type  2   force =     0.00000000   -0.00013836    0.00055326
     atom   34 type  2   force =     0.00010277    0.00005933   -0.00021895
     atom   35 type  2   force =    -0.00011982    0.00006918    0.00055326
     atom   36 type  2   force =     0.00005930   -0.00013249   -0.00019684
     atom   37 type  2   force =    -0.00008509    0.00011760   -0.00019684
     atom   38 type  2   force =    -0.00010277    0.00005933   -0.00021895
     atom   39 type  2   force =     0.00000000   -0.00011866   -0.00021895
     atom   40 type  2   force =    -0.00005930   -0.00013249   -0.00019684
     atom   41 type  2   force =     0.00000000    0.00000000   -0.00088740
     atom   42 type  2   force =    -0.00014439    0.00001489   -0.00019684
     atom   43 type  2   force =     0.00011982    0.00006918    0.00055326
     atom   44 type  2   force =    -0.00015507    0.00008953    0.00038427
     atom   45 type  2   force =     0.00008509    0.00011760   -0.00019684
     atom   46 type  2   force =     0.00014439    0.00001489   -0.00019684
     atom   47 type  2   force =    -0.00000000   -0.00017906    0.00038427
     The non-local contrib.  to forces
     atom    1 type  1   force =    -0.00101100    0.00605637    0.00069430
     atom    2 type  1   force =     0.00473947   -0.00390374    0.00069430
     atom    3 type  1   force =     0.00000000    0.00092050   -0.00126646
     atom    4 type  1   force =     0.00079718   -0.00046025   -0.00126646
     atom    5 type  1   force =     0.00000000   -0.00421193    0.00344293
     atom    6 type  1   force =     0.01257439    0.00725983   -0.03038888
     atom    7 type  1   force =    -0.00364763    0.00210596    0.00344293
     atom    8 type  1   force =    -0.00079718   -0.00046025   -0.00126646
     atom    9 type  1   force =     0.00101100    0.00605637    0.00069430
     atom   10 type  1   force =    -0.01257439    0.00725983   -0.03038888
     atom   11 type  1   force =     0.00000000   -0.01451966   -0.03038888
     atom   12 type  1   force =     0.00575047   -0.00215263    0.00069430
     atom   13 type  1   force =     0.00000000    0.00000000   -0.00230259
     atom   14 type  1   force =    -0.00473947   -0.00390374    0.00069430
     atom   15 type  1   force =     0.00364763    0.00210596    0.00344293
     atom   16 type  1   force =    -0.00575047   -0.00215263    0.00069430
     atom   17 type  2   force =     0.00097773    0.00056449   -0.28353669
     atom   18 type  2   force =    -0.00000000   -0.00295189   -0.28094358
     atom   19 type  2   force =    -0.00082877   -0.00047849   -0.28381635
     atom   20 type  2   force =    -0.00255642    0.00147595   -0.28094358
     atom   21 type  2   force =    -0.01015296   -0.00865425   -0.26791596
     atom   22 type  2   force =    -0.01257128   -0.00446560   -0.26791596
     atom   23 type  2   force =     0.00082877   -0.00047849   -0.28381635
     atom   24 type  2   force =     0.00000000    0.00095698   -0.28381635
     atom   25 type  2   force =     0.01015296   -0.00865425   -0.26791596
     atom   26 type  2   force =    -0.00241832    0.01311985   -0.26791596
     atom   27 type  2   force =     0.00255642    0.00147595   -0.28094358
     atom   28 type  2   force =    -0.00097773    0.00056449   -0.28353669
     atom   29 type  2   force =     0.01257128   -0.00446560   -0.26791596
     atom   30 type  2   force =     0.00241832    0.01311985   -0.26791596
     atom   31 type  2   force =    -0.00000000   -0.00112898   -0.28353669
     atom   32 type  2   force =     0.00120472    0.00069555    0.28051461
     atom   33 type  2   force =     0.00000000    0.00304406    0.28190609
     atom   34 type  2   force =     0.00039297    0.00022688    0.28002744
     atom   35 type  2   force =     0.00263623   -0.00152203    0.28190609
     atom   36 type  2   force =     0.00415294    0.00195272    0.28089586
     atom   37 type  2   force =     0.00376758    0.00262019    0.28089586
     atom   38 type  2   force =    -0.00039297    0.00022688    0.28002744
     atom   39 type  2   force =     0.00000000   -0.00045377    0.28002744
     atom   40 type  2   force =    -0.00415294    0.00195272    0.28089586
     atom   41 type  2   force =     0.00000000    0.00000000    0.28111209
     atom   42 type  2   force =    -0.00038537   -0.00457291    0.28089586
     atom   43 type  2   force =    -0.00263623   -0.00152203    0.28190609
     atom   44 type  2   force =    -0.00120472    0.00069555    0.28051461
     atom   45 type  2   force =    -0.00376758    0.00262019    0.28089586
     atom   46 type  2   force =     0.00038537   -0.00457291    0.28089586
     atom   47 type  2   force =     0.00000000   -0.00139109    0.28051461
     The ionic contribution  to forces
     atom    1 type  1   force =     0.70387953    0.32629238    1.56828464
     atom    2 type  1   force =     0.63449746    0.44646549    1.56828133
     atom    3 type  1   force =     0.00003138    0.11662052    0.68900691
     atom    4 type  1   force =     0.10101377   -0.05832175    0.68900808
     atom    5 type  1   force =     0.00001842    0.58914633    0.45081050
     atom    6 type  1   force =     3.50504296    2.02364369    3.45305965
     atom    7 type  1   force =     0.51016706   -0.29454988    0.45080836
     atom    8 type  1   force =    -0.10098347   -0.05833394    0.68901034
     atom    9 type  1   force =    -0.70388497    0.32630781    1.56828091
     atom   10 type  1   force =    -3.50497716    2.02362837    3.45305440
     atom   11 type  1   force =     0.00001257   -4.04728344    3.45306289
     atom   12 type  1   force =    -0.06940626   -0.77272046    1.56827858
     atom   13 type  1   force =    -0.00001790    0.00001900    1.31201149
     atom   14 type  1   force =    -0.63455212    0.44645027    1.56828019
     atom   15 type  1   force =    -0.51021750   -0.29461787    0.45081351
     atom   16 type  1   force =     0.06938072   -0.77273557    1.56827541
     atom   17 type  2   force =     0.31238881    0.18035306   32.60475174
     atom   18 type  2   force =     0.00000342    0.06463582   32.48281491
     atom   19 type  2   force =    -0.26074617   -0.15054675   32.21004500
     atom   20 type  2   force =     0.05596865   -0.03231161   32.48283349
     atom   21 type  2   force =     0.58108045    1.26122367   32.42359777
     atom   22 type  2   force =     1.38279097   -0.12737432   32.42359066
     atom   23 type  2   force =     0.26074855   -0.15054867   32.21002874
     atom   24 type  2   force =     0.00000269    0.30108068   32.21004372
     atom   25 type  2   force =    -0.58107287    1.26124279   32.42358906
     atom   26 type  2   force =     0.80170850   -1.13384751   32.42359067
     atom   27 type  2   force =    -0.05597287   -0.03231889   32.48281311
     atom   28 type  2   force =    -0.31239071    0.18035618   32.60474278
     atom   29 type  2   force =    -1.38280414   -0.12738702   32.42357645
     atom   30 type  2   force =    -0.80170792   -1.13385199   32.42359311
     atom   31 type  2   force =    -0.00000087   -0.36070942   32.60475872
     atom   32 type  2   force =    -0.04463068   -0.02577022  -31.90989897
     atom   33 type  2   force =     0.00000312   -0.02573289  -31.91602245
     atom   34 type  2   force =    -0.00084013   -0.00049245  -31.92051995
     atom   35 type  2   force =    -0.02229331    0.01286843  -31.91604604
     atom   36 type  2   force =    -0.07669077   -0.16384246  -31.98188019
     atom   37 type  2   force =    -0.18024025    0.01551232  -31.98187264
     atom   38 type  2   force =     0.00084741   -0.00049458  -31.92050429
     atom   39 type  2   force =     0.00000320    0.00097157  -31.92051858
     atom   40 type  2   force =     0.07669652   -0.16381939  -31.98187424
     atom   41 type  2   force =     0.00001391   -0.00000267  -31.80413700
     atom   42 type  2   force =    -0.10355412    0.14833405  -31.98187297
     atom   43 type  2   force =     0.02228928    0.01286523  -31.91602062
     atom   44 type  2   force =     0.04462660   -0.02576758  -31.90988506
     atom   45 type  2   force =     0.18022040    0.01549796  -31.98186165
     atom   46 type  2   force =     0.10354926    0.14832952  -31.98187617
     atom   47 type  2   force =    -0.00000142    0.05153619  -31.90990629
     The local contribution  to forces
     atom    1 type  1   force =    -0.70332810   -0.33213610   -1.56893151
     atom    2 type  1   force =    -0.63941481   -0.44298078   -1.56893113
     atom    3 type  1   force =     0.00013502   -0.11763082   -0.68774064
     atom    4 type  1   force =    -0.10175580    0.05866440   -0.68773992
     atom    5 type  1   force =     0.00006548   -0.58472721   -0.45382321
     atom    6 type  1   force =    -3.51721370   -2.03059753   -3.42636823
     atom    7 type  1   force =    -0.50648566    0.29236023   -0.45382351
     atom    8 type  1   force =     0.10188733    0.05866457   -0.68774033
     atom    9 type  1   force =     0.70332279   -0.33227336   -1.56893079
     atom   10 type  1   force =     3.51734854   -2.03073610   -3.42637482
     atom   11 type  1   force =    -0.00007002    4.06118762   -3.42636167
     atom   12 type  1   force =     0.06384344    0.77510801   -1.56893109
     atom   13 type  1   force =    -0.00014152    0.00004730   -1.30926489
     atom   14 type  1   force =     0.63927051   -0.44298070   -1.56893021
     atom   15 type  1   force =     0.50634098    0.29208386   -0.45382136
     atom   16 type  1   force =    -0.06398723    0.77496887   -1.56893085
     atom   17 type  2   force =    -0.31292594   -0.18067828  -32.33544231
     atom   18 type  2   force =    -0.00000010   -0.06196301  -32.21617470
     atom   19 type  2   force =     0.26102082    0.15070065  -31.94094618
     atom   20 type  2   force =    -0.05366645    0.03098702  -32.21619125
     atom   21 type  2   force =    -0.57173035   -1.25338868  -32.16958694
     atom   22 type  2   force =    -1.37132655    0.13156240  -32.16957094
     atom   23 type  2   force =    -0.26102827    0.15070124  -31.94094605
     atom   24 type  2   force =    -0.00000005   -0.30141093  -31.94094588
     atom   25 type  2   force =     0.57172947   -1.25336389  -32.16960250
     atom   26 type  2   force =    -0.79959193    1.12181689  -32.16957076
     atom   27 type  2   force =     0.05365962    0.03098036  -32.21617470
     atom   28 type  2   force =     0.31292565   -0.18067044  -32.33544234
     atom   29 type  2   force =     1.37131066    0.13155544  -32.16960272
     atom   30 type  2   force =     0.79959988    1.12181693  -32.16958690
     atom   31 type  2   force =     0.00000342    0.36133990  -32.33544257
     atom   32 type  2   force =     0.04363723    0.02518400   31.64416567
     atom   33 type  2   force =     0.00000023    0.02270156   31.64917015
     atom   34 type  2   force =     0.00058031    0.00033076   31.65468388
     atom   35 type  2   force =     0.01965448   -0.01135058   31.64920326
     atom   36 type  2   force =     0.07278967    0.16179104   31.71521587
     atom   37 type  2   force =     0.17651206   -0.01785669   31.71519938
     atom   38 type  2   force =    -0.00057983    0.00033075   31.65468385
     atom   39 type  2   force =     0.00000023   -0.00066870   31.65468368
     atom   40 type  2   force =    -0.07278883    0.16181281   31.71523272
     atom   41 type  2   force =     0.00001092   -0.00000639   31.53639873
     atom   42 type  2   force =     0.10371895   -0.14394025   31.71519887
     atom   43 type  2   force =    -0.01966136   -0.01135062   31.64916963
     atom   44 type  2   force =    -0.04363666    0.02519134   31.64414883
     atom   45 type  2   force =    -0.17652600   -0.01786434   31.71523279
     atom   46 type  2   force =    -0.10371850   -0.14394026   31.71521553
     atom   47 type  2   force =     0.00000396   -0.05038864   31.64416538
     The core correction contribution to forces
     atom    1 type  1   force =     0.00030246   -0.00023381    0.00009746
     atom    2 type  1   force =    -0.00005068    0.00037963    0.00009747
     atom    3 type  1   force =    -0.00000167    0.00002534   -0.00001060
     atom    4 type  1   force =     0.00001974   -0.00000976   -0.00001059
     atom    5 type  1   force =    -0.00000085   -0.00012649   -0.00035998
     atom    6 type  1   force =    -0.00023416   -0.00013506    0.00310160
     atom    7 type  1   force =    -0.00010919    0.00006454   -0.00036002
     atom    8 type  1   force =    -0.00002145   -0.00000972   -0.00001058
     atom    9 type  1   force =    -0.00030257   -0.00023216    0.00009742
     atom   10 type  1   force =     0.00023237   -0.00013345    0.00310154
     atom   11 type  1   force =     0.00000071    0.00027265    0.00310154
     atom   12 type  1   force =    -0.00035240   -0.00014328    0.00009736
     atom   13 type  1   force =     0.00000152    0.00000024    0.00013750
     atom   14 type  1   force =     0.00005215    0.00037964    0.00009742
     atom   15 type  1   force =     0.00011067    0.00006770   -0.00036006
     atom   16 type  1   force =     0.00035389   -0.00014172    0.00009737
     atom   17 type  2   force =    -0.00005283   -0.00002842    0.01459527
     atom   18 type  2   force =     0.00000008    0.00019445    0.01446888
     atom   19 type  2   force =     0.00008598    0.00005055    0.01463252
     atom   20 type  2   force =     0.00016823   -0.00009665    0.01446979
     atom   21 type  2   force =     0.00064396    0.00050065    0.01371211
     atom   22 type  2   force =     0.00075449    0.00030866    0.01371122
     atom   23 type  2   force =    -0.00008495    0.00005056    0.01463252
     atom   24 type  2   force =     0.00000008   -0.00009735    0.01463251
     atom   25 type  2   force =    -0.00064379    0.00049809    0.01371304
     atom   26 type  2   force =     0.00011019   -0.00080562    0.01371122
     atom   27 type  2   force =    -0.00016724   -0.00009576    0.01446887
     atom   28 type  2   force =     0.00005300   -0.00002927    0.01459527
     atom   29 type  2   force =    -0.00075262    0.00030951    0.01371306
     atom   30 type  2   force =    -0.00011087   -0.00080564    0.01371213
     atom   31 type  2   force =    -0.00000035    0.00006136    0.01459527
     atom   32 type  2   force =    -0.00005339   -0.00002871   -0.01439492
     atom   33 type  2   force =     0.00000010   -0.00014620   -0.01450316
     atom   34 type  2   force =    -0.00002394   -0.00001240   -0.01441657
     atom   35 type  2   force =    -0.00012674    0.00007461   -0.01450500
     atom   36 type  2   force =    -0.00019932   -0.00004384   -0.01443506
     atom   37 type  2   force =    -0.00013872   -0.00014940   -0.01443414
     atom   38 type  2   force =     0.00002415   -0.00001242   -0.01441657
     atom   39 type  2   force =     0.00000010    0.00002868   -0.01441656
     atom   40 type  2   force =     0.00019954   -0.00004637   -0.01443598
     atom   41 type  2   force =    -0.00000117    0.00000181   -0.01425877
     atom   42 type  2   force =     0.00006110    0.00019700   -0.01443416
     atom   43 type  2   force =     0.00012778    0.00007461   -0.01450317
     atom   44 type  2   force =     0.00005357   -0.00002955   -0.01439401
     atom   45 type  2   force =     0.00014061   -0.00014857   -0.01443599
     atom   46 type  2   force =    -0.00006091    0.00019700   -0.01443508
     atom   47 type  2   force =    -0.00000033    0.00006287   -0.01439493
     The Hubbard contrib.    to forces
     atom    1 type  1   force =     0.00000000    0.00000000    0.00000000
     atom    2 type  1   force =     0.00000000    0.00000000    0.00000000
     atom    3 type  1   force =     0.00000000    0.00000000    0.00000000
     atom    4 type  1   force =     0.00000000    0.00000000    0.00000000
     atom    5 type  1   force =     0.00000000    0.00000000    0.00000000
     atom    6 type  1   force =     0.00000000    0.00000000    0.00000000
     atom    7 type  1   force =     0.00000000    0.00000000    0.00000000
     atom    8 type  1   force =     0.00000000    0.00000000    0.00000000
     atom    9 type  1   force =     0.00000000    0.00000000    0.00000000
     atom   10 type  1   force =     0.00000000    0.00000000    0.00000000
     atom   11 type  1   force =     0.00000000    0.00000000    0.00000000
     atom   12 type  1   force =     0.00000000    0.00000000    0.00000000
     atom   13 type  1   force =     0.00000000    0.00000000    0.00000000
     atom   14 type  1   force =     0.00000000    0.00000000    0.00000000
     atom   15 type  1   force =     0.00000000    0.00000000    0.00000000
     atom   16 type  1   force =     0.00000000    0.00000000    0.00000000
     atom   17 type  2   force =     0.00000000    0.00000000    0.00000000
     atom   18 type  2   force =     0.00000000    0.00000000    0.00000000
     atom   19 type  2   force =     0.00000000    0.00000000    0.00000000
     atom   20 type  2   force =     0.00000000    0.00000000    0.00000000
     atom   21 type  2   force =     0.00000000    0.00000000    0.00000000
     atom   22 type  2   force =     0.00000000    0.00000000    0.00000000
     atom   23 type  2   force =     0.00000000    0.00000000    0.00000000
     atom   24 type  2   force =     0.00000000    0.00000000    0.00000000
     atom   25 type  2   force =     0.00000000    0.00000000    0.00000000
     atom   26 type  2   force =     0.00000000    0.00000000    0.00000000
     atom   27 type  2   force =     0.00000000    0.00000000    0.00000000
     atom   28 type  2   force =     0.00000000    0.00000000    0.00000000
     atom   29 type  2   force =     0.00000000    0.00000000    0.00000000
     atom   30 type  2   force =     0.00000000    0.00000000    0.00000000
     atom   31 type  2   force =     0.00000000    0.00000000    0.00000000
     atom   32 type  2   force =     0.00000000    0.00000000    0.00000000
     atom   33 type  2   force =     0.00000000    0.00000000    0.00000000
     atom   34 type  2   force =     0.00000000    0.00000000    0.00000000
     atom   35 type  2   force =     0.00000000    0.00000000    0.00000000
     atom   36 type  2   force =     0.00000000    0.00000000    0.00000000
     atom   37 type  2   force =     0.00000000    0.00000000    0.00000000
     atom   38 type  2   force =     0.00000000    0.00000000    0.00000000
     atom   39 type  2   force =     0.00000000    0.00000000    0.00000000
     atom   40 type  2   force =     0.00000000    0.00000000    0.00000000
     atom   41 type  2   force =     0.00000000    0.00000000    0.00000000
     atom   42 type  2   force =     0.00000000    0.00000000    0.00000000
     atom   43 type  2   force =     0.00000000    0.00000000    0.00000000
     atom   44 type  2   force =     0.00000000    0.00000000    0.00000000
     atom   45 type  2   force =     0.00000000    0.00000000    0.00000000
     atom   46 type  2   force =     0.00000000    0.00000000    0.00000000
     atom   47 type  2   force =     0.00000000    0.00000000    0.00000000
     The SCF correction term to forces
     atom    1 type  1   force =    -0.00000317   -0.00000023   -0.00000166
     atom    2 type  1   force =    -0.00000177   -0.00000260   -0.00000167
     atom    3 type  1   force =    -0.00000001    0.00000147   -0.00000315
     atom    4 type  1   force =     0.00000126   -0.00000073   -0.00000314
     atom    5 type  1   force =     0.00000002   -0.00000314   -0.00000730
     atom    6 type  1   force =     0.00000062    0.00000036   -0.00000559
     atom    7 type  1   force =    -0.00000271    0.00000156   -0.00000728
     atom    8 type  1   force =    -0.00000126   -0.00000074   -0.00000314
     atom    9 type  1   force =     0.00000315   -0.00000025   -0.00000168
     atom   10 type  1   force =    -0.00000063    0.00000035   -0.00000559
     atom   11 type  1   force =    -0.00000003   -0.00000072   -0.00000560
     atom   12 type  1   force =     0.00000135    0.00000285   -0.00000168
     atom   13 type  1   force =     0.00000001    0.00000001    0.00000412
     atom   14 type  1   force =     0.00000176   -0.00000259   -0.00000170
     atom   15 type  1   force =     0.00000271    0.00000157   -0.00000728
     atom   16 type  1   force =    -0.00000136    0.00000284   -0.00000168
     atom   17 type  2   force =    -0.00000328   -0.00000189   -0.00000191
     atom   18 type  2   force =     0.00000000    0.00000017    0.00000011
     atom   19 type  2   force =     0.00000047    0.00000027   -0.00000133
     atom   20 type  2   force =     0.00000015   -0.00000009    0.00000010
     atom   21 type  2   force =    -0.00000072   -0.00000166    0.00000049
     atom   22 type  2   force =    -0.00000180    0.00000020    0.00000049
     atom   23 type  2   force =    -0.00000047    0.00000027   -0.00000133
     atom   24 type  2   force =     0.00000000   -0.00000055   -0.00000133
     atom   25 type  2   force =     0.00000072   -0.00000166    0.00000049
     atom   26 type  2   force =    -0.00000107    0.00000146    0.00000049
     atom   27 type  2   force =    -0.00000015   -0.00000009    0.00000010
     atom   28 type  2   force =     0.00000328   -0.00000189   -0.00000192
     atom   29 type  2   force =     0.00000180    0.00000020    0.00000049
     atom   30 type  2   force =     0.00000107    0.00000146    0.00000049
     atom   31 type  2   force =    -0.00000000    0.00000379   -0.00000191
     atom   32 type  2   force =    -0.00000145   -0.00000084    0.00000019
     atom   33 type  2   force =     0.00000000    0.00000090   -0.00000128
     atom   34 type  2   force =    -0.00000006   -0.00000003   -0.00000026
     atom   35 type  2   force =     0.00000078   -0.00000045   -0.00000128
     atom   36 type  2   force =     0.00000168   -0.00000063   -0.00000143
     atom   37 type  2   force =     0.00000029    0.00000177   -0.00000143
     atom   38 type  2   force =     0.00000006   -0.00000003   -0.00000026
     atom   39 type  2   force =    -0.00000000    0.00000007   -0.00000026
     atom   40 type  2   force =    -0.00000168   -0.00000063   -0.00000143
     atom   41 type  2   force =    -0.00000000   -0.00000000   -0.00000336
     atom   42 type  2   force =    -0.00000139   -0.00000114   -0.00000143
     atom   43 type  2   force =    -0.00000078   -0.00000045   -0.00000128
     atom   44 type  2   force =     0.00000145   -0.00000084    0.00000019
     atom   45 type  2   force =    -0.00000029    0.00000177   -0.00000143
     atom   46 type  2   force =     0.00000139   -0.00000114   -0.00000143
     atom   47 type  2   force =    -0.00000000    0.00000168    0.00000019

     Total force =     0.002746     Total SCF correction =     0.000024
     Energy error            =      2.0E-05 Ry
     Gradient error          =      8.9E-04 Ry/Bohr
Begin final coordinates

ATOMIC_POSITIONS (angstrom)
Mo               1.6010626848        0.9306576159       11.1771792648
Mo               0.0113477601        3.6841256652       11.1771792648
Mo              -1.5951590000        6.4411101514       11.1666756593
Mo              -3.1952038503        9.2124704243       11.1666756593
Mo               4.7854730000        0.9539670518       11.1446041344
Mo               3.2314652176        3.7076160893       11.1117846737
Mo               1.6237396151        6.4302519742       11.1446041344
Mo               0.0048868503        9.2124704243       11.1666756593
Mo               7.9698843152        0.9306586159       11.1771792648
Mo               6.3394807824        3.7076170893       11.1117846737
Mo               4.7854740000        6.3992388214       11.1117846737
Mo               3.1957590751        9.1996877189       11.1771792648
Mo              11.1661060000        0.9209640000       11.1863274855
Mo               9.5596002399        3.6841256652       11.1771792648
Mo               7.9472083849        6.4302539742       11.1446041344
Mo               6.3751889249        9.1996887189       11.1771792648
S                0.0074699774        1.8462437934       12.7420657345
S               -1.5951580000        4.6090913502       12.7343575266
S               -3.2081725995        7.3574089100       12.7116630642
S               -4.7817773663       10.1284783249       12.7343585266
S                3.2336752532        1.9099382795       12.7058217968
S                1.6757345240        4.6083700751       12.7058207968
S                0.0178575995        7.3574089100       12.7116630642
S               -1.5951580000       10.1512331798       12.7116630642
S                6.3372717468        1.9099352795       12.7058227968
S                3.2275322709        7.2961646454       12.7058207968
S                1.5914623663       10.1284793249       12.7343575266
S                9.5634770226        1.8462427934       12.7420657345
S                7.8952144760        4.6083710751       12.7058227968
S                6.3434137291        7.2961646454       12.7058217968
S                4.7854730000       10.1219864130       12.7420657345
S               -0.0016945187        1.8409526692        9.6255227732
S               -1.5951580000        4.5944665314        9.6169626350
S               -3.1942994463        7.3654191562        9.6076290994
S               -4.7944428308       10.1357917342        9.6169606350
S                3.1747647443        1.8611965536        9.5844357505
S                1.6040676969        4.5817229407        9.5844367505
S                0.0039834463        7.3654191562        9.6076290994
S               -1.5951580000       10.1352126875        9.6076290994
S                6.3961822557        1.8611935536        9.5844347505
S                4.7854720000        4.6048250000        9.5500437409
S                3.2147769525        7.3715535057        9.5844367505
S                1.6041278308       10.1357917342        9.6169626350
S                9.5726415187        1.8409516692        9.6255237732
S                7.9668813031        4.5817239407        9.5844347505
S                6.3561700475        7.3715535057        9.5844357505
S                4.7854730000       10.1325696617        9.6255227732
End final coordinates



     Writing config-only to output data dir /home/nihal/Desktop/Otptf/Trial_4.save/ :
     XML data file

     lsda relaxation :  a final configuration with zero
                        absolute magnetization has been found

     the program is checking if it is really the minimum energy structure
     by performing a new scf iteration without any "electronic" history

     Initial potential from superposition of free atoms

     starting charge     409.9819, renormalised to     410.0000

     negative rho (up, down):  1.815E-03 1.118E-03

     total cpu time spent up to now is    17624.9 secs

     Self-consistent Calculation

     iteration #  1     ecut=    65.00 Ry     beta= 0.30
     Davidson diagonalization with overlap

---- Real-time Memory Report at c_bands before calling an iterative solver
          2764 MiB given to the printing process from OS
             0 MiB allocation reported by mallinfo(arena+hblkhd)
         14295 MiB available memory on the node where the printing process lives
------------------
     ethr =  1.00E-06,  avg # of iterations =  8.4

     negative rho (up, down):  1.766E-03 1.231E-03

     total cpu time spent up to now is    18305.1 secs

     total energy              =   -2978.53540082 Ry
     estimated scf accuracy    <       2.71574097 Ry

     total magnetization       =     1.97 Bohr mag/cell
     absolute magnetization    =    13.08 Bohr mag/cell

     iteration #  2     ecut=    65.00 Ry     beta= 0.30
     Davidson diagonalization with overlap

---- Real-time Memory Report at c_bands before calling an iterative solver
          2764 MiB given to the printing process from OS
             0 MiB allocation reported by mallinfo(arena+hblkhd)
         13841 MiB available memory on the node where the printing process lives
------------------
     ethr =  6.62E-04,  avg # of iterations =  2.0

     negative rho (up, down):  1.698E-03 1.291E-03

     total cpu time spent up to now is    18506.0 secs

     total energy              =   -2978.86688478 Ry
     estimated scf accuracy    <       1.18873345 Ry

     total magnetization       =     0.15 Bohr mag/cell
     absolute magnetization    =     9.85 Bohr mag/cell

     iteration #  3     ecut=    65.00 Ry     beta= 0.30
     Davidson diagonalization with overlap

---- Real-time Memory Report at c_bands before calling an iterative solver
          2764 MiB given to the printing process from OS
             0 MiB allocation reported by mallinfo(arena+hblkhd)
         13794 MiB available memory on the node where the printing process lives
------------------
     ethr =  2.90E-04,  avg # of iterations =  3.6

     negative rho (up, down):  1.658E-03 1.346E-03

     total cpu time spent up to now is    18701.3 secs

     total energy              =   -2978.98437568 Ry
     estimated scf accuracy    <       1.62051861 Ry

     total magnetization       =     1.78 Bohr mag/cell
     absolute magnetization    =     9.20 Bohr mag/cell

     iteration #  4     ecut=    65.00 Ry     beta= 0.30
     Davidson diagonalization with overlap

---- Real-time Memory Report at c_bands before calling an iterative solver
          2764 MiB given to the printing process from OS
             0 MiB allocation reported by mallinfo(arena+hblkhd)
         13918 MiB available memory on the node where the printing process lives
------------------
     ethr =  2.90E-04,  avg # of iterations =  4.8

     negative rho (up, down):  1.628E-03 1.382E-03

     total cpu time spent up to now is    18891.2 secs

     total energy              =   -2979.27543151 Ry
     estimated scf accuracy    <       0.57152149 Ry

     total magnetization       =     0.02 Bohr mag/cell
     absolute magnetization    =     7.33 Bohr mag/cell

     iteration #  5     ecut=    65.00 Ry     beta= 0.30
     Davidson diagonalization with overlap

---- Real-time Memory Report at c_bands before calling an iterative solver
          2764 MiB given to the printing process from OS
             0 MiB allocation reported by mallinfo(arena+hblkhd)
         13591 MiB available memory on the node where the printing process lives
------------------
     ethr =  1.39E-04,  avg # of iterations =  1.8

     negative rho (up, down):  1.599E-03 1.401E-03

     total cpu time spent up to now is    19066.5 secs

     total energy              =   -2979.38974069 Ry
     estimated scf accuracy    <       0.08811885 Ry

     total magnetization       =     0.01 Bohr mag/cell
     absolute magnetization    =     5.85 Bohr mag/cell

     iteration #  6     ecut=    65.00 Ry     beta= 0.30
     Davidson diagonalization with overlap

---- Real-time Memory Report at c_bands before calling an iterative solver
          2764 MiB given to the printing process from OS
             0 MiB allocation reported by mallinfo(arena+hblkhd)
         13894 MiB available memory on the node where the printing process lives
------------------
     ethr =  2.15E-05,  avg # of iterations =  8.4

     negative rho (up, down):  1.556E-03 1.408E-03

     total cpu time spent up to now is    19336.2 secs

     total energy              =   -2979.41307962 Ry
     estimated scf accuracy    <       0.07464087 Ry

     total magnetization       =     0.00 Bohr mag/cell
     absolute magnetization    =     2.62 Bohr mag/cell

     iteration #  7     ecut=    65.00 Ry     beta= 0.30
     Davidson diagonalization with overlap

---- Real-time Memory Report at c_bands before calling an iterative solver
          2764 MiB given to the printing process from OS
             0 MiB allocation reported by mallinfo(arena+hblkhd)
         13463 MiB available memory on the node where the printing process lives
------------------
     ethr =  1.82E-05,  avg # of iterations =  1.2

     negative rho (up, down):  1.514E-03 1.408E-03

     total cpu time spent up to now is    19509.7 secs

     total energy              =   -2979.41910945 Ry
     estimated scf accuracy    <       0.01583034 Ry

     total magnetization       =     0.00 Bohr mag/cell
     absolute magnetization    =     2.15 Bohr mag/cell

     iteration #  8     ecut=    65.00 Ry     beta= 0.30
     Davidson diagonalization with overlap

---- Real-time Memory Report at c_bands before calling an iterative solver
          2764 MiB given to the printing process from OS
             0 MiB allocation reported by mallinfo(arena+hblkhd)
         13752 MiB available memory on the node where the printing process lives
------------------
     ethr =  3.86E-06,  avg # of iterations =  7.8

     negative rho (up, down):  1.488E-03 1.412E-03

     total cpu time spent up to now is    19752.2 secs

     total energy              =   -2979.42306983 Ry
     estimated scf accuracy    <       0.00333537 Ry

     total magnetization       =     0.00 Bohr mag/cell
     absolute magnetization    =     1.58 Bohr mag/cell

     iteration #  9     ecut=    65.00 Ry     beta= 0.30
     Davidson diagonalization with overlap

---- Real-time Memory Report at c_bands before calling an iterative solver
          2764 MiB given to the printing process from OS
             0 MiB allocation reported by mallinfo(arena+hblkhd)
         13343 MiB available memory on the node where the printing process lives
------------------
     ethr =  8.14E-07,  avg # of iterations =  4.1

     negative rho (up, down):  1.460E-03 1.414E-03

     total cpu time spent up to now is    19949.5 secs

     total energy              =   -2979.42531929 Ry
     estimated scf accuracy    <       0.00206200 Ry

     total magnetization       =     0.00 Bohr mag/cell
     absolute magnetization    =     1.30 Bohr mag/cell

     iteration # 10     ecut=    65.00 Ry     beta= 0.30
     Davidson diagonalization with overlap

---- Real-time Memory Report at c_bands before calling an iterative solver
          2764 MiB given to the printing process from OS
             0 MiB allocation reported by mallinfo(arena+hblkhd)
         13641 MiB available memory on the node where the printing process lives
------------------
     ethr =  5.03E-07,  avg # of iterations =  3.1

     negative rho (up, down):  1.451E-03 1.419E-03

     total cpu time spent up to now is    20173.9 secs

     total energy              =   -2979.42640004 Ry
     estimated scf accuracy    <       0.00083657 Ry

     total magnetization       =     0.00 Bohr mag/cell
     absolute magnetization    =     0.70 Bohr mag/cell

     iteration # 11     ecut=    65.00 Ry     beta= 0.30
     Davidson diagonalization with overlap

---- Real-time Memory Report at c_bands before calling an iterative solver
          2764 MiB given to the printing process from OS
             0 MiB allocation reported by mallinfo(arena+hblkhd)
         13413 MiB available memory on the node where the printing process lives
------------------
     ethr =  2.04E-07,  avg # of iterations =  2.6

     negative rho (up, down):  1.440E-03 1.421E-03

     total cpu time spent up to now is    20376.5 secs

     total energy              =   -2979.42679452 Ry
     estimated scf accuracy    <       0.00053512 Ry

     total magnetization       =     0.00 Bohr mag/cell
     absolute magnetization    =     0.52 Bohr mag/cell

     iteration # 12     ecut=    65.00 Ry     beta= 0.30
     Davidson diagonalization with overlap

---- Real-time Memory Report at c_bands before calling an iterative solver
          2764 MiB given to the printing process from OS
             0 MiB allocation reported by mallinfo(arena+hblkhd)
         13627 MiB available memory on the node where the printing process lives
------------------
     ethr =  1.31E-07,  avg # of iterations =  2.5

     negative rho (up, down):  1.436E-03 1.424E-03

     total cpu time spent up to now is    20582.6 secs

     total energy              =   -2979.42702856 Ry
     estimated scf accuracy    <       0.00006202 Ry

     total magnetization       =     0.00 Bohr mag/cell
     absolute magnetization    =     0.29 Bohr mag/cell

     iteration # 13     ecut=    65.00 Ry     beta= 0.30
     Davidson diagonalization with overlap

---- Real-time Memory Report at c_bands before calling an iterative solver
          2764 MiB given to the printing process from OS
             0 MiB allocation reported by mallinfo(arena+hblkhd)
         13693 MiB available memory on the node where the printing process lives
------------------
     ethr =  1.51E-08,  avg # of iterations =  3.4

     negative rho (up, down):  1.435E-03 1.426E-03

     total cpu time spent up to now is    20834.7 secs

     total energy              =   -2979.42708992 Ry
     estimated scf accuracy    <       0.00004743 Ry

     total magnetization       =     0.00 Bohr mag/cell
     absolute magnetization    =     0.17 Bohr mag/cell

     iteration # 14     ecut=    65.00 Ry     beta= 0.30
     Davidson diagonalization with overlap

---- Real-time Memory Report at c_bands before calling an iterative solver
          2764 MiB given to the printing process from OS
             0 MiB allocation reported by mallinfo(arena+hblkhd)
         13623 MiB available memory on the node where the printing process lives
------------------
     ethr =  1.16E-08,  avg # of iterations =  2.9

     negative rho (up, down):  1.434E-03 1.429E-03

     total cpu time spent up to now is    21046.4 secs

     total energy              =   -2979.42711165 Ry
     estimated scf accuracy    <       0.00002014 Ry

     total magnetization       =     0.00 Bohr mag/cell
     absolute magnetization    =     0.10 Bohr mag/cell

     iteration # 15     ecut=    65.00 Ry     beta= 0.30
     Davidson diagonalization with overlap

---- Real-time Memory Report at c_bands before calling an iterative solver
          2764 MiB given to the printing process from OS
             0 MiB allocation reported by mallinfo(arena+hblkhd)
         13593 MiB available memory on the node where the printing process lives
------------------
     ethr =  4.91E-09,  avg # of iterations =  2.9

     negative rho (up, down):  1.434E-03 1.430E-03

     total cpu time spent up to now is    21259.7 secs

     total energy              =   -2979.42712096 Ry
     estimated scf accuracy    <       0.00000599 Ry

     total magnetization       =     0.00 Bohr mag/cell
     absolute magnetization    =     0.06 Bohr mag/cell

     iteration # 16     ecut=    65.00 Ry     beta= 0.30
     Davidson diagonalization with overlap

---- Real-time Memory Report at c_bands before calling an iterative solver
          2764 MiB given to the printing process from OS
             0 MiB allocation reported by mallinfo(arena+hblkhd)
         13648 MiB available memory on the node where the printing process lives
------------------
     ethr =  1.46E-09,  avg # of iterations =  3.1

     negative rho (up, down):  1.434E-03 1.431E-03

     total cpu time spent up to now is    21492.9 secs

     total energy              =   -2979.42712428 Ry
     estimated scf accuracy    <       0.00000070 Ry

     total magnetization       =     0.00 Bohr mag/cell
     absolute magnetization    =     0.02 Bohr mag/cell

     iteration # 17     ecut=    65.00 Ry     beta= 0.30
     Davidson diagonalization with overlap

---- Real-time Memory Report at c_bands before calling an iterative solver
          2764 MiB given to the printing process from OS
             0 MiB allocation reported by mallinfo(arena+hblkhd)
         13443 MiB available memory on the node where the printing process lives
------------------
     ethr =  1.71E-10,  avg # of iterations =  3.4

     negative rho (up, down):  1.434E-03 1.432E-03

     total cpu time spent up to now is    21754.2 secs

     total energy              =   -2979.42712488 Ry
     estimated scf accuracy    <       0.00000015 Ry

     total magnetization       =     0.00 Bohr mag/cell
     absolute magnetization    =     0.01 Bohr mag/cell

     iteration # 18     ecut=    65.00 Ry     beta= 0.30
     Davidson diagonalization with overlap

---- Real-time Memory Report at c_bands before calling an iterative solver
          2764 MiB given to the printing process from OS
             0 MiB allocation reported by mallinfo(arena+hblkhd)
         13263 MiB available memory on the node where the printing process lives
------------------
     ethr =  3.63E-11,  avg # of iterations =  3.3

     negative rho (up, down):  1.434E-03 1.432E-03

     total cpu time spent up to now is    22007.0 secs

     total energy              =   -2979.42712499 Ry
     estimated scf accuracy    <       0.00000007 Ry

     total magnetization       =     0.00 Bohr mag/cell
     absolute magnetization    =     0.00 Bohr mag/cell

     iteration # 19     ecut=    65.00 Ry     beta= 0.30
     Davidson diagonalization with overlap

---- Real-time Memory Report at c_bands before calling an iterative solver
          2764 MiB given to the printing process from OS
             0 MiB allocation reported by mallinfo(arena+hblkhd)
         13360 MiB available memory on the node where the printing process lives
------------------
     ethr =  1.66E-11,  avg # of iterations =  2.6

     negative rho (up, down):  1.434E-03 1.432E-03

     total cpu time spent up to now is    22207.8 secs

     total energy              =   -2979.42712503 Ry
     estimated scf accuracy    <       0.00000005 Ry

     total magnetization       =     0.00 Bohr mag/cell
     absolute magnetization    =     0.00 Bohr mag/cell

     iteration # 20     ecut=    65.00 Ry     beta= 0.30
     Davidson diagonalization with overlap

---- Real-time Memory Report at c_bands before calling an iterative solver
          2764 MiB given to the printing process from OS
             0 MiB allocation reported by mallinfo(arena+hblkhd)
         13645 MiB available memory on the node where the printing process lives
------------------
     ethr =  1.20E-11,  avg # of iterations =  2.8

     negative rho (up, down):  1.433E-03 1.432E-03

     total cpu time spent up to now is    22432.5 secs

     total energy              =   -2979.42712505 Ry
     estimated scf accuracy    <          8.2E-09 Ry

     total magnetization       =    -0.00 Bohr mag/cell
     absolute magnetization    =     0.00 Bohr mag/cell

     iteration # 21     ecut=    65.00 Ry     beta= 0.30
     Davidson diagonalization with overlap

---- Real-time Memory Report at c_bands before calling an iterative solver
          2764 MiB given to the printing process from OS
             0 MiB allocation reported by mallinfo(arena+hblkhd)
         13693 MiB available memory on the node where the printing process lives
------------------
     ethr =  2.01E-12,  avg # of iterations =  3.0

     negative rho (up, down):  1.433E-03 1.433E-03

     total cpu time spent up to now is    22632.7 secs

     total energy              =   -2979.42712506 Ry
     estimated scf accuracy    <          4.8E-09 Ry

     total magnetization       =    -0.00 Bohr mag/cell
     absolute magnetization    =     0.00 Bohr mag/cell

     iteration # 22     ecut=    65.00 Ry     beta= 0.30
     Davidson diagonalization with overlap

---- Real-time Memory Report at c_bands before calling an iterative solver
          2764 MiB given to the printing process from OS
             0 MiB allocation reported by mallinfo(arena+hblkhd)
         13658 MiB available memory on the node where the printing process lives
------------------
     ethr =  1.17E-12,  avg # of iterations =  3.0

     negative rho (up, down):  1.433E-03 1.433E-03

     total cpu time spent up to now is    22865.4 secs

     total energy              =   -2979.42712506 Ry
     estimated scf accuracy    <          1.1E-09 Ry

     total magnetization       =    -0.00 Bohr mag/cell
     absolute magnetization    =     0.00 Bohr mag/cell

     iteration # 23     ecut=    65.00 Ry     beta= 0.30
     Davidson diagonalization with overlap

---- Real-time Memory Report at c_bands before calling an iterative solver
          2764 MiB given to the printing process from OS
             0 MiB allocation reported by mallinfo(arena+hblkhd)
         13563 MiB available memory on the node where the printing process lives
------------------
     ethr =  2.61E-13,  avg # of iterations =  3.4

     negative rho (up, down):  1.433E-03 1.433E-03

     total cpu time spent up to now is    23128.4 secs

     total energy              =   -2979.42712506 Ry
     estimated scf accuracy    <          7.1E-10 Ry

     total magnetization       =    -0.00 Bohr mag/cell
     absolute magnetization    =     0.00 Bohr mag/cell

     iteration # 24     ecut=    65.00 Ry     beta= 0.30
     Davidson diagonalization with overlap

---- Real-time Memory Report at c_bands before calling an iterative solver
          2764 MiB given to the printing process from OS
             0 MiB allocation reported by mallinfo(arena+hblkhd)
         13606 MiB available memory on the node where the printing process lives
------------------
     ethr =  1.74E-13,  avg # of iterations =  2.7

     negative rho (up, down):  1.433E-03 1.433E-03

     total cpu time spent up to now is    23355.7 secs

     total energy              =   -2979.42712506 Ry
     estimated scf accuracy    <          3.4E-10 Ry

     total magnetization       =    -0.00 Bohr mag/cell
     absolute magnetization    =     0.00 Bohr mag/cell

     iteration # 25     ecut=    65.00 Ry     beta= 0.30
     Davidson diagonalization with overlap

---- Real-time Memory Report at c_bands before calling an iterative solver
          2764 MiB given to the printing process from OS
             0 MiB allocation reported by mallinfo(arena+hblkhd)
         13671 MiB available memory on the node where the printing process lives
------------------
     ethr =  1.00E-13,  avg # of iterations =  2.5

     negative rho (up, down):  1.433E-03 1.433E-03

     total cpu time spent up to now is    23548.0 secs

     total energy              =   -2979.42712506 Ry
     estimated scf accuracy    <          1.8E-10 Ry

     total magnetization       =    -0.00 Bohr mag/cell
     absolute magnetization    =     0.00 Bohr mag/cell

     iteration # 26     ecut=    65.00 Ry     beta= 0.30
     Davidson diagonalization with overlap

---- Real-time Memory Report at c_bands before calling an iterative solver
          2764 MiB given to the printing process from OS
             0 MiB allocation reported by mallinfo(arena+hblkhd)
         13347 MiB available memory on the node where the printing process lives
------------------
     ethr =  1.00E-13,  avg # of iterations =  2.1

     negative rho (up, down):  1.433E-03 1.433E-03

     Magnetic moment per site  (integrated on atomic sphere of radius R)
     atom   1 (R=0.077)  charge= 10.6266  magn= -0.0000
     atom   2 (R=0.077)  charge= 10.6266  magn= -0.0000
     atom   3 (R=0.077)  charge= 10.6267  magn=  0.0000
     atom   4 (R=0.077)  charge= 10.6267  magn=  0.0000
     atom   5 (R=0.077)  charge= 10.6291  magn= -0.0000
     atom   6 (R=0.077)  charge= 10.6197  magn= -0.0000
     atom   7 (R=0.077)  charge= 10.6291  magn= -0.0000
     atom   8 (R=0.077)  charge= 10.6267  magn=  0.0000
     atom   9 (R=0.077)  charge= 10.6266  magn= -0.0000
     atom  10 (R=0.077)  charge= 10.6197  magn= -0.0000
     atom  11 (R=0.077)  charge= 10.6197  magn= -0.0000
     atom  12 (R=0.077)  charge= 10.6266  magn= -0.0000
     atom  13 (R=0.077)  charge= 10.6293  magn= -0.0000
     atom  14 (R=0.077)  charge= 10.6266  magn= -0.0000
     atom  15 (R=0.077)  charge= 10.6291  magn= -0.0000
     atom  16 (R=0.077)  charge= 10.6266  magn= -0.0000
     atom  17 (R=0.077)  charge=  4.0459  magn=  0.0000
     atom  18 (R=0.077)  charge=  4.0439  magn=  0.0000
     atom  19 (R=0.077)  charge=  4.0444  magn=  0.0000
     atom  20 (R=0.077)  charge=  4.0439  magn=  0.0000
     atom  21 (R=0.077)  charge=  4.0468  magn=  0.0000
     atom  22 (R=0.077)  charge=  4.0468  magn=  0.0000
     atom  23 (R=0.077)  charge=  4.0444  magn=  0.0000
     atom  24 (R=0.077)  charge=  4.0444  magn=  0.0000
     atom  25 (R=0.077)  charge=  4.0468  magn=  0.0000
     atom  26 (R=0.077)  charge=  4.0468  magn=  0.0000
     atom  27 (R=0.077)  charge=  4.0439  magn=  0.0000
     atom  28 (R=0.077)  charge=  4.0459  magn=  0.0000
     atom  29 (R=0.077)  charge=  4.0468  magn=  0.0000
     atom  30 (R=0.077)  charge=  4.0468  magn=  0.0000
     atom  31 (R=0.077)  charge=  4.0459  magn=  0.0000
     atom  32 (R=0.077)  charge=  4.0496  magn=  0.0000
     atom  33 (R=0.077)  charge=  4.0465  magn=  0.0000
     atom  34 (R=0.077)  charge=  4.0465  magn=  0.0000
     atom  35 (R=0.077)  charge=  4.0465  magn=  0.0000
     atom  36 (R=0.077)  charge=  4.0437  magn=  0.0000
     atom  37 (R=0.077)  charge=  4.0437  magn=  0.0000
     atom  38 (R=0.077)  charge=  4.0465  magn=  0.0000
     atom  39 (R=0.077)  charge=  4.0465  magn=  0.0000
     atom  40 (R=0.077)  charge=  4.0437  magn=  0.0000
     atom  41 (R=0.077)  charge=  4.0731  magn=  0.0000
     atom  42 (R=0.077)  charge=  4.0437  magn=  0.0000
     atom  43 (R=0.077)  charge=  4.0465  magn=  0.0000
     atom  44 (R=0.077)  charge=  4.0496  magn=  0.0000
     atom  45 (R=0.077)  charge=  4.0437  magn=  0.0000
     atom  46 (R=0.077)  charge=  4.0437  magn=  0.0000
     atom  47 (R=0.077)  charge=  4.0496  magn=  0.0000

     total cpu time spent up to now is    23728.6 secs

     End of self-consistent calculation

 ------ SPIN UP ------------


          k = 0.0000 0.0000 0.0000 (126355 PWs)   bands (ev):

   -60.3633 -60.3560 -60.3559 -60.3448 -60.3379 -60.3378 -60.3322 -60.3096
   -60.3095 -60.3076 -60.3000 -60.2999 -60.2965 -60.2915 -60.2755 -60.2754
   -34.6615 -34.6615 -34.6172 -34.5969 -34.5894 -34.5894 -34.5648 -34.5648
   -34.5255 -34.4864 -34.4753 -34.4745 -34.4744 -34.4724 -34.4724 -34.4521
   -34.4521 -34.4506 -34.4481 -34.4392 -34.4352 -34.4322 -34.4322 -34.4294
   -34.4294 -34.4050 -34.4050 -34.4005 -34.4004 -34.3972 -34.3863 -34.3863
   -34.3856 -34.3853 -34.3773 -34.3771 -34.3672 -34.3671 -34.3563 -34.3561
   -34.3373 -34.3373 -34.3346 -34.3059 -34.2934 -34.2934 -34.2152 -34.2151
   -13.4635 -12.7102 -12.7101 -12.6861 -12.6726 -12.6726 -12.5511 -12.1698
   -11.8947 -11.8947 -11.8474 -11.8459 -11.8459 -11.8117 -11.7195 -11.7195
   -11.7095 -11.7094 -11.6942 -11.6754 -11.6753 -11.6682 -11.5587 -11.4798
   -11.4798 -11.4568 -11.4567 -11.4395 -11.4394 -11.4354 -11.4272  -5.2006
    -5.0980  -5.0979  -4.9847  -4.5273  -4.5248  -4.5248  -4.4949  -4.4743
    -4.4743  -4.4265  -4.4096  -4.4096  -4.3878  -4.3878  -4.3674  -4.3120
    -4.3120  -4.2856  -4.2646  -4.2347  -4.2347  -4.1430  -3.9423  -3.9423
    -3.4818  -3.4818  -3.4374  -3.3175  -3.2613  -3.2495  -3.2495  -3.1809
    -3.1809  -3.0898  -3.0509  -3.0407  -3.0407  -3.0322  -3.0321  -2.9946
    -2.9730  -2.9730  -2.8490  -2.8490  -2.7261  -2.6699  -2.6699  -2.6398
    -2.6139  -2.6139  -2.5888  -2.4512  -2.4424  -2.4424  -2.3215  -2.3215
    -2.2968  -2.2455  -2.1603  -2.1603  -2.0314  -2.0314  -1.9350  -1.9223
    -1.9223  -1.9039  -1.6022  -1.6022  -1.2946  -1.2904  -1.2904  -1.2869
    -1.2729  -1.2729  -1.1844  -1.1590  -1.1077  -1.1077  -1.0602  -1.0601
    -1.0350  -1.0016  -1.0016  -0.9172  -0.8486  -0.8486  -0.7948  -0.7401
    -0.7401  -0.5405  -0.5405  -0.4561  -0.2447  -0.1677  -0.1677  -0.1353
    -0.1228  -0.1199  -0.1199  -0.0464  -0.0463  -0.0032  -0.0032   0.0254
     0.0366   0.0774   0.0775   0.4359   0.6833   1.7419   1.7419   2.6690
     2.6853   2.6919   2.6919   2.7268   2.7268   2.7366   2.7466   2.7466
     2.7720   2.7720   2.8076   2.8146   2.8147   2.8649   2.9130   2.9220
     2.9220   2.9759   3.1583   3.1583   3.2737   3.2935   3.2935   3.3256
     3.3256   3.3435   3.3550   3.3550   3.3860   3.4184   3.4184   3.4550
     3.4550   3.4614   3.5095   3.5095   3.5953   3.6600

     occupation numbers 
     1.0000   1.0000   1.0000   1.0000   1.0000   1.0000   1.0000   1.0000
     1.0000   1.0000   1.0000   1.0000   1.0000   1.0000   1.0000   1.0000
     1.0000   1.0000   1.0000   1.0000   1.0000   1.0000   1.0000   1.0000
     1.0000   1.0000   1.0000   1.0000   1.0000   1.0000   1.0000   1.0000
     1.0000   1.0000   1.0000   1.0000   1.0000   1.0000   1.0000   1.0000
     1.0000   1.0000   1.0000   1.0000   1.0000   1.0000   1.0000   1.0000
     1.0000   1.0000   1.0000   1.0000   1.0000   1.0000   1.0000   1.0000
     1.0000   1.0000   1.0000   1.0000   1.0000   1.0000   1.0000   1.0000
     1.0000   1.0000   1.0000   1.0000   1.0000   1.0000   1.0000   1.0000
     1.0000   1.0000   1.0000   1.0000   1.0000   1.0000   1.0000   1.0000
     1.0000   1.0000   1.0000   1.0000   1.0000   1.0000   1.0000   1.0000
     1.0000   1.0000   1.0000   1.0000   1.0000   1.0000   1.0000   1.0000
     1.0000   1.0000   1.0000   1.0000   1.0000   1.0000   1.0000   1.0000
     1.0000   1.0000   1.0000   1.0000   1.0000   1.0000   1.0000   1.0000
     1.0000   1.0000   1.0000   1.0000   1.0000   1.0000   1.0000   1.0000
     1.0000   1.0000   1.0000   1.0000   1.0000   1.0000   1.0000   1.0000
     1.0000   1.0000   1.0000   1.0000   1.0000   1.0000   1.0000   1.0000
     1.0000   1.0000   1.0000   1.0000   1.0000   1.0000   1.0000   1.0000
     1.0000   1.0000   1.0000   1.0000   1.0000   1.0000   1.0000   1.0000
     1.0000   1.0000   1.0000   1.0000   1.0000   1.0000   1.0000   1.0000
     1.0000   1.0000   1.0000   1.0000   1.0000   1.0000   1.0000   1.0000
     1.0000   1.0000   1.0000   1.0000   1.0000   1.0000   1.0000   1.0000
     1.0000   1.0000   1.0000   1.0000   1.0000   1.0000   1.0000   1.0000
     1.0000   1.0000   1.0000   1.0000   1.0000   1.0000   1.0000   1.0000
     1.0000   1.0000   1.0000   1.0000   1.0000   1.0000   1.0000   1.0000
     1.0000   1.0000   1.0000   1.0000   0.9992   0.0002   0.0002   0.0000
     0.0000   0.0000   0.0000   0.0000   0.0000   0.0000   0.0000   0.0000
     0.0000   0.0000   0.0000   0.0000   0.0000   0.0000   0.0000   0.0000
     0.0000   0.0000   0.0000   0.0000   0.0000   0.0000   0.0000   0.0000
     0.0000   0.0000   0.0000   0.0000   0.0000   0.0000   0.0000   0.0000
     0.0000   0.0000   0.0000   0.0000   0.0000   0.0000

          k = 0.0000 0.1925 0.0000 (126305 PWs)   bands (ev):

   -60.3631 -60.3563 -60.3559 -60.3446 -60.3380 -60.3378 -60.3320 -60.3095
   -60.3095 -60.3076 -60.3002 -60.3000 -60.2963 -60.2914 -60.2755 -60.2754
   -34.6587 -34.6566 -34.6138 -34.5994 -34.5914 -34.5887 -34.5693 -34.5616
   -34.5322 -34.5083 -34.4916 -34.4832 -34.4749 -34.4679 -34.4560 -34.4538
   -34.4524 -34.4442 -34.4438 -34.4397 -34.4350 -34.4291 -34.4282 -34.4241
   -34.4209 -34.4053 -34.4053 -34.4032 -34.3970 -34.3949 -34.3876 -34.3873
   -34.3851 -34.3779 -34.3775 -34.3730 -34.3679 -34.3672 -34.3562 -34.3561
   -34.3415 -34.3399 -34.3343 -34.3061 -34.2970 -34.2936 -34.2174 -34.2155
   -13.4388 -12.8938 -12.7912 -12.7477 -12.5585 -12.5123 -12.4248 -12.1600
   -11.9502 -11.9176 -11.8865 -11.8620 -11.8454 -11.8112 -11.7858 -11.7626
   -11.7165 -11.7086 -11.6812 -11.6776 -11.6248 -11.5799 -11.5471 -11.5179
   -11.4997 -11.4823 -11.4673 -11.4452 -11.4379 -11.4035 -11.3839  -5.1634
    -5.0645  -5.0638  -4.9552  -4.5842  -4.5503  -4.5487  -4.5338  -4.5196
    -4.4891  -4.4695  -4.4410  -4.4282  -4.4220  -4.4060  -4.3881  -4.3880
    -4.3005  -4.2677  -4.2509  -4.1636  -4.0950  -4.0863  -3.9109  -3.8893
    -3.4687  -3.4682  -3.4186  -3.3331  -3.3030  -3.2764  -3.2746  -3.1921
    -3.1631  -3.1604  -3.1300  -3.1079  -3.0985  -3.0842  -3.0765  -3.0088
    -3.0040  -2.8985  -2.7596  -2.7525  -2.6922  -2.6769  -2.6441  -2.6417
    -2.5939  -2.5875  -2.5609  -2.5559  -2.5412  -2.3936  -2.2976  -2.2927
    -2.1616  -2.1513  -2.1128  -2.0988  -2.0642  -2.0158  -1.9989  -1.9728
    -1.9264  -1.8008  -1.6350  -1.5982  -1.4350  -1.4128  -1.3173  -1.2943
    -1.2472  -1.2421  -1.2238  -1.2091  -1.1492  -1.1460  -1.0689  -1.0624
    -1.0200  -0.9642  -0.9117  -0.9040  -0.8229  -0.8005  -0.7503  -0.6735
    -0.6630  -0.6119  -0.6032  -0.5136  -0.3294  -0.2623  -0.2276  -0.1562
    -0.1313  -0.1259  -0.0507  -0.0373  -0.0302   0.0136   0.0142   0.0361
     0.1122   0.1857   0.1909   0.4408   0.6669   1.7419   1.7471   2.5696
     2.5841   2.6820   2.6896   2.7119   2.7179   2.7226   2.7314   2.7581
     2.7625   2.7864   2.7936   2.8261   2.8301   2.8658   2.8938   2.9649
     2.9714   3.0049   3.1112   3.1171   3.1877   3.2227   3.2408   3.2533
     3.2827   3.2894   3.3209   3.3426   3.3685   3.3803   3.4201   3.4371
     3.5147   3.5342   3.6081   3.6276   3.6438   3.6440

     occupation numbers 
     1.0000   1.0000   1.0000   1.0000   1.0000   1.0000   1.0000   1.0000
     1.0000   1.0000   1.0000   1.0000   1.0000   1.0000   1.0000   1.0000
     1.0000   1.0000   1.0000   1.0000   1.0000   1.0000   1.0000   1.0000
     1.0000   1.0000   1.0000   1.0000   1.0000   1.0000   1.0000   1.0000
     1.0000   1.0000   1.0000   1.0000   1.0000   1.0000   1.0000   1.0000
     1.0000   1.0000   1.0000   1.0000   1.0000   1.0000   1.0000   1.0000
     1.0000   1.0000   1.0000   1.0000   1.0000   1.0000   1.0000   1.0000
     1.0000   1.0000   1.0000   1.0000   1.0000   1.0000   1.0000   1.0000
     1.0000   1.0000   1.0000   1.0000   1.0000   1.0000   1.0000   1.0000
     1.0000   1.0000   1.0000   1.0000   1.0000   1.0000   1.0000   1.0000
     1.0000   1.0000   1.0000   1.0000   1.0000   1.0000   1.0000   1.0000
     1.0000   1.0000   1.0000   1.0000   1.0000   1.0000   1.0000   1.0000
     1.0000   1.0000   1.0000   1.0000   1.0000   1.0000   1.0000   1.0000
     1.0000   1.0000   1.0000   1.0000   1.0000   1.0000   1.0000   1.0000
     1.0000   1.0000   1.0000   1.0000   1.0000   1.0000   1.0000   1.0000
     1.0000   1.0000   1.0000   1.0000   1.0000   1.0000   1.0000   1.0000
     1.0000   1.0000   1.0000   1.0000   1.0000   1.0000   1.0000   1.0000
     1.0000   1.0000   1.0000   1.0000   1.0000   1.0000   1.0000   1.0000
     1.0000   1.0000   1.0000   1.0000   1.0000   1.0000   1.0000   1.0000
     1.0000   1.0000   1.0000   1.0000   1.0000   1.0000   1.0000   1.0000
     1.0000   1.0000   1.0000   1.0000   1.0000   1.0000   1.0000   1.0000
     1.0000   1.0000   1.0000   1.0000   1.0000   1.0000   1.0000   1.0000
     1.0000   1.0000   1.0000   1.0000   1.0000   1.0000   1.0000   1.0000
     1.0000   1.0000   1.0000   1.0000   1.0000   1.0000   1.0000   1.0000
     1.0000   1.0000   1.0000   1.0000   1.0000   1.0000   1.0000   1.0000
     1.0000   1.0000   1.0000   1.0000   0.9994   0.0002   0.0002   0.0000
     0.0000   0.0000   0.0000   0.0000   0.0000   0.0000   0.0000   0.0000
     0.0000   0.0000   0.0000   0.0000   0.0000   0.0000   0.0000   0.0000
     0.0000   0.0000   0.0000   0.0000   0.0000   0.0000   0.0000   0.0000
     0.0000   0.0000   0.0000   0.0000   0.0000   0.0000   0.0000   0.0000
     0.0000   0.0000   0.0000   0.0000   0.0000   0.0000

          k = 0.0000 0.3849 0.0000 (126328 PWs)   bands (ev):

   -60.3626 -60.3570 -60.3560 -60.3444 -60.3384 -60.3378 -60.3317 -60.3094
   -60.3093 -60.3075 -60.3005 -60.3003 -60.2961 -60.2914 -60.2755 -60.2754
   -34.6514 -34.6431 -34.6101 -34.6064 -34.5950 -34.5906 -34.5714 -34.5539
   -34.5488 -34.5335 -34.5100 -34.4847 -34.4758 -34.4731 -34.4586 -34.4561
   -34.4528 -34.4420 -34.4335 -34.4311 -34.4307 -34.4276 -34.4260 -34.4122
   -34.4081 -34.4057 -34.4040 -34.3970 -34.3919 -34.3909 -34.3888 -34.3853
   -34.3829 -34.3778 -34.3765 -34.3763 -34.3663 -34.3567 -34.3561 -34.3524
   -34.3498 -34.3452 -34.3358 -34.3073 -34.3069 -34.2935 -34.2222 -34.2161
   -13.3662 -13.0840 -12.8513 -12.7989 -12.4013 -12.3668 -12.2137 -12.1318
   -12.0436 -12.0367 -11.9913 -11.9348 -11.8966 -11.8250 -11.7523 -11.7375
   -11.7054 -11.6828 -11.6815 -11.6691 -11.6308 -11.5936 -11.5608 -11.5213
   -11.5007 -11.4769 -11.4644 -11.4457 -11.4383 -11.3734 -11.3476  -5.0581
    -4.9707  -4.9673  -4.8703  -4.7242  -4.6762  -4.6593  -4.6166  -4.6069
    -4.5747  -4.5091  -4.4999  -4.4389  -4.4229  -4.4068  -4.3627  -4.3547
    -4.3072  -4.2481  -4.2263  -4.1698  -4.0311  -3.9359  -3.7422  -3.7119
    -3.5325  -3.4303  -3.4276  -3.3751  -3.3302  -3.3088  -3.3071  -3.2875
    -3.2623  -3.2455  -3.2383  -3.2010  -3.1547  -3.1518  -3.1250  -3.0073
    -2.9342  -2.7977  -2.6949  -2.6827  -2.6539  -2.6369  -2.6271  -2.6267
    -2.5981  -2.5612  -2.5430  -2.4815  -2.4403  -2.4110  -2.3806  -2.3251
    -2.3085  -2.2394  -2.1084  -2.0832  -2.0147  -1.9376  -1.8527  -1.7591
    -1.7490  -1.6843  -1.6789  -1.5772  -1.5748  -1.4686  -1.3840  -1.3649
    -1.3191  -1.3113  -1.2281  -1.2214  -1.1727  -1.1661  -1.1367  -1.1240
    -1.0136  -1.0044  -0.9508  -0.9076  -0.8182  -0.7883  -0.7485  -0.6812
    -0.6186  -0.6059  -0.5018  -0.4650  -0.3845  -0.3111  -0.2702  -0.2341
    -0.2000  -0.1953  -0.0092   0.0058   0.0178   0.0391   0.0516   0.0661
     0.2930   0.3212   0.3299   0.4546   0.6181   1.7418   1.7606   2.4270
     2.4571   2.6066   2.6342   2.6568   2.6880   2.6954   2.7197   2.7404
     2.7580   2.7738   2.8040   2.8429   2.8728   2.8996   2.9323   2.9962
     3.0082   3.0443   3.0645   3.0954   3.1032   3.1217   3.1479   3.1759
     3.2020   3.2525   3.2725   3.3015   3.3422   3.3516   3.3703   3.4666
     3.5103   3.5354   3.5805   3.6567   3.7438   3.8124

     occupation numbers 
     1.0000   1.0000   1.0000   1.0000   1.0000   1.0000   1.0000   1.0000
     1.0000   1.0000   1.0000   1.0000   1.0000   1.0000   1.0000   1.0000
     1.0000   1.0000   1.0000   1.0000   1.0000   1.0000   1.0000   1.0000
     1.0000   1.0000   1.0000   1.0000   1.0000   1.0000   1.0000   1.0000
     1.0000   1.0000   1.0000   1.0000   1.0000   1.0000   1.0000   1.0000
     1.0000   1.0000   1.0000   1.0000   1.0000   1.0000   1.0000   1.0000
     1.0000   1.0000   1.0000   1.0000   1.0000   1.0000   1.0000   1.0000
     1.0000   1.0000   1.0000   1.0000   1.0000   1.0000   1.0000   1.0000
     1.0000   1.0000   1.0000   1.0000   1.0000   1.0000   1.0000   1.0000
     1.0000   1.0000   1.0000   1.0000   1.0000   1.0000   1.0000   1.0000
     1.0000   1.0000   1.0000   1.0000   1.0000   1.0000   1.0000   1.0000
     1.0000   1.0000   1.0000   1.0000   1.0000   1.0000   1.0000   1.0000
     1.0000   1.0000   1.0000   1.0000   1.0000   1.0000   1.0000   1.0000
     1.0000   1.0000   1.0000   1.0000   1.0000   1.0000   1.0000   1.0000
     1.0000   1.0000   1.0000   1.0000   1.0000   1.0000   1.0000   1.0000
     1.0000   1.0000   1.0000   1.0000   1.0000   1.0000   1.0000   1.0000
     1.0000   1.0000   1.0000   1.0000   1.0000   1.0000   1.0000   1.0000
     1.0000   1.0000   1.0000   1.0000   1.0000   1.0000   1.0000   1.0000
     1.0000   1.0000   1.0000   1.0000   1.0000   1.0000   1.0000   1.0000
     1.0000   1.0000   1.0000   1.0000   1.0000   1.0000   1.0000   1.0000
     1.0000   1.0000   1.0000   1.0000   1.0000   1.0000   1.0000   1.0000
     1.0000   1.0000   1.0000   1.0000   1.0000   1.0000   1.0000   1.0000
     1.0000   1.0000   1.0000   1.0000   1.0000   1.0000   1.0000   1.0000
     1.0000   1.0000   1.0000   1.0000   1.0000   1.0000   1.0000   1.0000
     1.0000   1.0000   1.0000   1.0000   1.0000   1.0000   1.0000   1.0000
     1.0000   1.0000   1.0000   1.0000   0.9997   0.0002   0.0002   0.0000
     0.0000   0.0000   0.0000   0.0000   0.0000   0.0000   0.0000   0.0000
     0.0000   0.0000   0.0000   0.0000   0.0000   0.0000   0.0000   0.0000
     0.0000   0.0000   0.0000   0.0000   0.0000   0.0000   0.0000   0.0000
     0.0000   0.0000   0.0000   0.0000   0.0000   0.0000   0.0000   0.0000
     0.0000   0.0000   0.0000   0.0000   0.0000   0.0000

          k = 0.0000-0.5774 0.0000 (126288 PWs)   bands (ev):

   -60.3623 -60.3575 -60.3560 -60.3442 -60.3386 -60.3377 -60.3316 -60.3094
   -60.3092 -60.3075 -60.3007 -60.3004 -60.2960 -60.2913 -60.2756 -60.2754
   -34.6459 -34.6289 -34.6175 -34.6143 -34.5938 -34.5896 -34.5692 -34.5579
   -34.5479 -34.5457 -34.5198 -34.4809 -34.4799 -34.4720 -34.4654 -34.4595
   -34.4530 -34.4427 -34.4326 -34.4275 -34.4253 -34.4217 -34.4213 -34.4076
   -34.4055 -34.4051 -34.3986 -34.3966 -34.3964 -34.3905 -34.3896 -34.3890
   -34.3815 -34.3774 -34.3687 -34.3676 -34.3672 -34.3582 -34.3565 -34.3551
   -34.3550 -34.3377 -34.3369 -34.3159 -34.3081 -34.2932 -34.2248 -34.2164
   -13.2685 -13.2219 -12.8717 -12.8172 -12.2459 -12.2291 -12.2224 -12.1580
   -12.0967 -12.0768 -12.0175 -11.9530 -11.9431 -11.9007 -11.7091 -11.7050
   -11.6996 -11.6745 -11.6660 -11.6639 -11.6582 -11.6023 -11.5962 -11.5505
   -11.4796 -11.4614 -11.4579 -11.4427 -11.4384 -11.3624 -11.3347  -4.9249
    -4.8776  -4.8669  -4.8475  -4.7885  -4.7842  -4.7603  -4.7101  -4.6596
    -4.6574  -4.4948  -4.4936  -4.4514  -4.4369  -4.4132  -4.3423  -4.3285
    -4.2981  -4.2452  -4.2295  -4.1440  -4.0345  -3.8109  -3.7347  -3.5668
    -3.5074  -3.4373  -3.4367  -3.3823  -3.3711  -3.3630  -3.3339  -3.3317
    -3.3056  -3.2948  -3.2807  -3.2396  -3.1974  -3.1733  -3.1291  -2.9908
    -2.9557  -2.6688  -2.6593  -2.6332  -2.6300  -2.6012  -2.5874  -2.5719
    -2.5644  -2.5576  -2.5514  -2.5266  -2.5190  -2.4292  -2.4288  -2.3924
    -2.3587  -2.2306  -2.1077  -2.0373  -2.0220  -1.9290  -1.8558  -1.8284
    -1.6920  -1.5080  -1.4955  -1.4375  -1.4056  -1.4014  -1.3964  -1.3738
    -1.3602  -1.3528  -1.3286  -1.3156  -1.2901  -1.2143  -1.1908  -1.1727
    -1.1654  -1.1644  -0.9595  -0.9296  -0.8083  -0.7244  -0.7029  -0.6548
    -0.6355  -0.5986  -0.4403  -0.4146  -0.3565  -0.3162  -0.2954  -0.2702
    -0.2509  -0.2231   0.0035   0.0313   0.0322   0.0497   0.0695   0.0790
     0.3722   0.3800   0.4036   0.4681   0.5708   1.7413   1.7693   2.3630
     2.4023   2.5686   2.5978   2.6101   2.6591   2.6835   2.7167   2.7413
     2.7607   2.7702   2.8059   2.8359   2.8853   2.9955   3.0037   3.0195
     3.0250   3.0417   3.0455   3.0573   3.0617   3.0752   3.0770   3.1309
     3.1451   3.2034   3.2987   3.3026   3.3260   3.3268   3.3446   3.4973
     3.5190   3.5311   3.6210   3.6624   3.6818   3.7451

     occupation numbers 
     1.0000   1.0000   1.0000   1.0000   1.0000   1.0000   1.0000   1.0000
     1.0000   1.0000   1.0000   1.0000   1.0000   1.0000   1.0000   1.0000
     1.0000   1.0000   1.0000   1.0000   1.0000   1.0000   1.0000   1.0000
     1.0000   1.0000   1.0000   1.0000   1.0000   1.0000   1.0000   1.0000
     1.0000   1.0000   1.0000   1.0000   1.0000   1.0000   1.0000   1.0000
     1.0000   1.0000   1.0000   1.0000   1.0000   1.0000   1.0000   1.0000
     1.0000   1.0000   1.0000   1.0000   1.0000   1.0000   1.0000   1.0000
     1.0000   1.0000   1.0000   1.0000   1.0000   1.0000   1.0000   1.0000
     1.0000   1.0000   1.0000   1.0000   1.0000   1.0000   1.0000   1.0000
     1.0000   1.0000   1.0000   1.0000   1.0000   1.0000   1.0000   1.0000
     1.0000   1.0000   1.0000   1.0000   1.0000   1.0000   1.0000   1.0000
     1.0000   1.0000   1.0000   1.0000   1.0000   1.0000   1.0000   1.0000
     1.0000   1.0000   1.0000   1.0000   1.0000   1.0000   1.0000   1.0000
     1.0000   1.0000   1.0000   1.0000   1.0000   1.0000   1.0000   1.0000
     1.0000   1.0000   1.0000   1.0000   1.0000   1.0000   1.0000   1.0000
     1.0000   1.0000   1.0000   1.0000   1.0000   1.0000   1.0000   1.0000
     1.0000   1.0000   1.0000   1.0000   1.0000   1.0000   1.0000   1.0000
     1.0000   1.0000   1.0000   1.0000   1.0000   1.0000   1.0000   1.0000
     1.0000   1.0000   1.0000   1.0000   1.0000   1.0000   1.0000   1.0000
     1.0000   1.0000   1.0000   1.0000   1.0000   1.0000   1.0000   1.0000
     1.0000   1.0000   1.0000   1.0000   1.0000   1.0000   1.0000   1.0000
     1.0000   1.0000   1.0000   1.0000   1.0000   1.0000   1.0000   1.0000
     1.0000   1.0000   1.0000   1.0000   1.0000   1.0000   1.0000   1.0000
     1.0000   1.0000   1.0000   1.0000   1.0000   1.0000   1.0000   1.0000
     1.0000   1.0000   1.0000   1.0000   1.0000   1.0000   1.0000   1.0000
     1.0000   1.0000   1.0000   1.0000   0.9998   0.0002   0.0001   0.0000
     0.0000   0.0000   0.0000   0.0000   0.0000   0.0000   0.0000   0.0000
     0.0000   0.0000   0.0000   0.0000   0.0000   0.0000   0.0000   0.0000
     0.0000   0.0000   0.0000   0.0000   0.0000   0.0000   0.0000   0.0000
     0.0000   0.0000   0.0000   0.0000   0.0000   0.0000   0.0000   0.0000
     0.0000   0.0000   0.0000   0.0000   0.0000   0.0000

          k = 0.1667 0.2887 0.0000 (126343 PWs)   bands (ev):

   -60.3627 -60.3568 -60.3560 -60.3444 -60.3383 -60.3378 -60.3318 -60.3094
   -60.3093 -60.3076 -60.3004 -60.3002 -60.2961 -60.2914 -60.2756 -60.2754
   -34.6535 -34.6475 -34.6081 -34.6043 -34.5992 -34.5826 -34.5762 -34.5591
   -34.5406 -34.5287 -34.5010 -34.4941 -34.4736 -34.4659 -34.4564 -34.4549
   -34.4531 -34.4424 -34.4385 -34.4341 -34.4301 -34.4281 -34.4263 -34.4245
   -34.4066 -34.4048 -34.4025 -34.3968 -34.3940 -34.3905 -34.3879 -34.3868
   -34.3842 -34.3789 -34.3773 -34.3737 -34.3670 -34.3585 -34.3560 -34.3556
   -34.3470 -34.3441 -34.3357 -34.3077 -34.3026 -34.2940 -34.2208 -34.2160
   -13.3901 -12.9931 -12.9552 -12.6427 -12.5767 -12.3172 -12.2997 -12.1412
   -12.0386 -11.9861 -11.9696 -11.8636 -11.8522 -11.8286 -11.7975 -11.7653
   -11.7480 -11.7001 -11.6904 -11.6253 -11.6008 -11.5873 -11.5361 -11.5298
   -11.5035 -11.4946 -11.4884 -11.4468 -11.4059 -11.3976 -11.3514  -5.0918
    -5.0003  -4.9986  -4.8980  -4.6660  -4.6413  -4.6150  -4.5764  -4.5487
    -4.5419  -4.5216  -4.5082  -4.4887  -4.4479  -4.4410  -4.3866  -4.3601
    -4.2944  -4.2338  -4.1994  -4.0970  -4.0523  -3.9818  -3.8803  -3.7087
    -3.4493  -3.4466  -3.4374  -3.4150  -3.3549  -3.3260  -3.2880  -3.2689
    -3.2324  -3.2246  -3.1868  -3.1742  -3.1339  -3.1157  -3.0528  -2.9774
    -2.9359  -2.8892  -2.8213  -2.7772  -2.6913  -2.6663  -2.6235  -2.5997
    -2.5710  -2.5445  -2.5163  -2.4804  -2.3927  -2.3603  -2.3061  -2.2787
    -2.2584  -2.2348  -2.2133  -2.1448  -2.0547  -1.9578  -1.8708  -1.7777
    -1.7433  -1.7420  -1.6471  -1.6189  -1.5964  -1.4699  -1.3835  -1.3391
    -1.3122  -1.2583  -1.2396  -1.2289  -1.1985  -1.1330  -1.1008  -1.0518
    -0.9976  -0.9645  -0.9527  -0.9186  -0.8269  -0.7971  -0.7375  -0.6819
    -0.6224  -0.5913  -0.5462  -0.5260  -0.3526  -0.3395  -0.2288  -0.1970
    -0.1386  -0.1316  -0.1151  -0.0994  -0.0519   0.0650   0.1222   0.1523
     0.2121   0.2201   0.3427   0.4491   0.6339   1.7376   1.7613   2.4061
     2.5931   2.6061   2.6308   2.6679   2.6819   2.7089   2.7236   2.7441
     2.7671   2.7751   2.8094   2.8308   2.8578   2.8802   2.9249   2.9832
     3.0048   3.0416   3.0701   3.1018   3.1360   3.1528   3.1713   3.1795
     3.2171   3.2334   3.2935   3.3025   3.3035   3.3649   3.3814   3.4627
     3.5323   3.5517   3.6338   3.6843   3.7102   3.7229

     occupation numbers 
     1.0000   1.0000   1.0000   1.0000   1.0000   1.0000   1.0000   1.0000
     1.0000   1.0000   1.0000   1.0000   1.0000   1.0000   1.0000   1.0000
     1.0000   1.0000   1.0000   1.0000   1.0000   1.0000   1.0000   1.0000
     1.0000   1.0000   1.0000   1.0000   1.0000   1.0000   1.0000   1.0000
     1.0000   1.0000   1.0000   1.0000   1.0000   1.0000   1.0000   1.0000
     1.0000   1.0000   1.0000   1.0000   1.0000   1.0000   1.0000   1.0000
     1.0000   1.0000   1.0000   1.0000   1.0000   1.0000   1.0000   1.0000
     1.0000   1.0000   1.0000   1.0000   1.0000   1.0000   1.0000   1.0000
     1.0000   1.0000   1.0000   1.0000   1.0000   1.0000   1.0000   1.0000
     1.0000   1.0000   1.0000   1.0000   1.0000   1.0000   1.0000   1.0000
     1.0000   1.0000   1.0000   1.0000   1.0000   1.0000   1.0000   1.0000
     1.0000   1.0000   1.0000   1.0000   1.0000   1.0000   1.0000   1.0000
     1.0000   1.0000   1.0000   1.0000   1.0000   1.0000   1.0000   1.0000
     1.0000   1.0000   1.0000   1.0000   1.0000   1.0000   1.0000   1.0000
     1.0000   1.0000   1.0000   1.0000   1.0000   1.0000   1.0000   1.0000
     1.0000   1.0000   1.0000   1.0000   1.0000   1.0000   1.0000   1.0000
     1.0000   1.0000   1.0000   1.0000   1.0000   1.0000   1.0000   1.0000
     1.0000   1.0000   1.0000   1.0000   1.0000   1.0000   1.0000   1.0000
     1.0000   1.0000   1.0000   1.0000   1.0000   1.0000   1.0000   1.0000
     1.0000   1.0000   1.0000   1.0000   1.0000   1.0000   1.0000   1.0000
     1.0000   1.0000   1.0000   1.0000   1.0000   1.0000   1.0000   1.0000
     1.0000   1.0000   1.0000   1.0000   1.0000   1.0000   1.0000   1.0000
     1.0000   1.0000   1.0000   1.0000   1.0000   1.0000   1.0000   1.0000
     1.0000   1.0000   1.0000   1.0000   1.0000   1.0000   1.0000   1.0000
     1.0000   1.0000   1.0000   1.0000   1.0000   1.0000   1.0000   1.0000
     1.0000   1.0000   1.0000   1.0000   0.9996   0.0002   0.0002   0.0000
     0.0000   0.0000   0.0000   0.0000   0.0000   0.0000   0.0000   0.0000
     0.0000   0.0000   0.0000   0.0000   0.0000   0.0000   0.0000   0.0000
     0.0000   0.0000   0.0000   0.0000   0.0000   0.0000   0.0000   0.0000
     0.0000   0.0000   0.0000   0.0000   0.0000   0.0000   0.0000   0.0000
     0.0000   0.0000   0.0000   0.0000   0.0000   0.0000

          k = 0.1667 0.4811 0.0000 (126406 PWs)   bands (ev):

   -60.3623 -60.3574 -60.3561 -60.3442 -60.3386 -60.3378 -60.3316 -60.3094
   -60.3092 -60.3075 -60.3007 -60.3005 -60.2960 -60.2913 -60.2756 -60.2754
   -34.6457 -34.6328 -34.6153 -34.6059 -34.6005 -34.5870 -34.5731 -34.5614
   -34.5556 -34.5311 -34.5168 -34.4973 -34.4722 -34.4717 -34.4589 -34.4547
   -34.4489 -34.4423 -34.4414 -34.4328 -34.4278 -34.4249 -34.4206 -34.4080
   -34.4065 -34.4043 -34.4016 -34.3978 -34.3916 -34.3898 -34.3871 -34.3835
   -34.3798 -34.3774 -34.3725 -34.3708 -34.3637 -34.3572 -34.3564 -34.3552
   -34.3535 -34.3418 -34.3369 -34.3158 -34.3068 -34.2942 -34.2243 -34.2167
   -13.2963 -13.1514 -13.0121 -12.6497 -12.4313 -12.2424 -12.1609 -12.1139
   -12.0852 -12.0496 -12.0063 -11.9756 -11.8927 -11.8497 -11.8110 -11.7702
   -11.7513 -11.6865 -11.6422 -11.6233 -11.6083 -11.5818 -11.5676 -11.5467
   -11.5067 -11.5007 -11.4737 -11.4221 -11.4087 -11.3772 -11.3301  -4.9614
    -4.8878  -4.8804  -4.7949  -4.7835  -4.7544  -4.7128  -4.6825  -4.6411
    -4.6262  -4.6033  -4.5554  -4.5014  -4.4855  -4.4127  -4.3635  -4.3492
    -4.2729  -4.2541  -4.1017  -4.0535  -3.9679  -3.8757  -3.7800  -3.6585
    -3.5749  -3.4198  -3.4071  -3.3831  -3.3533  -3.3405  -3.3238  -3.3086
    -3.2956  -3.2797  -3.2667  -3.2323  -3.2276  -3.1414  -3.1010  -3.0031
    -2.9151  -2.8190  -2.7429  -2.6956  -2.6583  -2.6275  -2.5979  -2.5772
    -2.5481  -2.5132  -2.4987  -2.4795  -2.4514  -2.4267  -2.3951  -2.3787
    -2.2997  -2.2571  -2.1587  -2.0332  -1.9999  -1.8648  -1.8147  -1.7709
    -1.6947  -1.6716  -1.6032  -1.5004  -1.4802  -1.4474  -1.3940  -1.3608
    -1.3537  -1.3393  -1.3056  -1.2616  -1.2210  -1.2102  -1.1624  -1.1230
    -1.0871  -1.0305  -0.9939  -0.9684  -0.8914  -0.7974  -0.7611  -0.6914
    -0.5740  -0.5501  -0.4544  -0.4355  -0.3286  -0.3021  -0.2610  -0.2410
    -0.2207  -0.1899  -0.1093  -0.0940  -0.0563   0.1093   0.1473   0.2160
     0.2872   0.3587   0.4442   0.4649   0.5773   1.7313   1.7802   2.2819
     2.5271   2.5364   2.5980   2.6271   2.6671   2.6849   2.7086   2.7226
     2.7622   2.7884   2.7975   2.8292   2.8890   2.9546   2.9836   3.0018
     3.0244   3.0415   3.0593   3.0730   3.0848   3.1047   3.1115   3.1249
     3.1560   3.1676   3.1937   3.2389   3.3025   3.3444   3.4119   3.4487
     3.5313   3.5843   3.6742   3.7151   3.7549   3.7655

     occupation numbers 
     1.0000   1.0000   1.0000   1.0000   1.0000   1.0000   1.0000   1.0000
     1.0000   1.0000   1.0000   1.0000   1.0000   1.0000   1.0000   1.0000
     1.0000   1.0000   1.0000   1.0000   1.0000   1.0000   1.0000   1.0000
     1.0000   1.0000   1.0000   1.0000   1.0000   1.0000   1.0000   1.0000
     1.0000   1.0000   1.0000   1.0000   1.0000   1.0000   1.0000   1.0000
     1.0000   1.0000   1.0000   1.0000   1.0000   1.0000   1.0000   1.0000
     1.0000   1.0000   1.0000   1.0000   1.0000   1.0000   1.0000   1.0000
     1.0000   1.0000   1.0000   1.0000   1.0000   1.0000   1.0000   1.0000
     1.0000   1.0000   1.0000   1.0000   1.0000   1.0000   1.0000   1.0000
     1.0000   1.0000   1.0000   1.0000   1.0000   1.0000   1.0000   1.0000
     1.0000   1.0000   1.0000   1.0000   1.0000   1.0000   1.0000   1.0000
     1.0000   1.0000   1.0000   1.0000   1.0000   1.0000   1.0000   1.0000
     1.0000   1.0000   1.0000   1.0000   1.0000   1.0000   1.0000   1.0000
     1.0000   1.0000   1.0000   1.0000   1.0000   1.0000   1.0000   1.0000
     1.0000   1.0000   1.0000   1.0000   1.0000   1.0000   1.0000   1.0000
     1.0000   1.0000   1.0000   1.0000   1.0000   1.0000   1.0000   1.0000
     1.0000   1.0000   1.0000   1.0000   1.0000   1.0000   1.0000   1.0000
     1.0000   1.0000   1.0000   1.0000   1.0000   1.0000   1.0000   1.0000
     1.0000   1.0000   1.0000   1.0000   1.0000   1.0000   1.0000   1.0000
     1.0000   1.0000   1.0000   1.0000   1.0000   1.0000   1.0000   1.0000
     1.0000   1.0000   1.0000   1.0000   1.0000   1.0000   1.0000   1.0000
     1.0000   1.0000   1.0000   1.0000   1.0000   1.0000   1.0000   1.0000
     1.0000   1.0000   1.0000   1.0000   1.0000   1.0000   1.0000   1.0000
     1.0000   1.0000   1.0000   1.0000   1.0000   1.0000   1.0000   1.0000
     1.0000   1.0000   1.0000   1.0000   1.0000   1.0000   1.0000   1.0000
     1.0000   1.0000   1.0000   1.0000   0.9998   0.0002   0.0001   0.0000
     0.0000   0.0000   0.0000   0.0000   0.0000   0.0000   0.0000   0.0000
     0.0000   0.0000   0.0000   0.0000   0.0000   0.0000   0.0000   0.0000
     0.0000   0.0000   0.0000   0.0000   0.0000   0.0000   0.0000   0.0000
     0.0000   0.0000   0.0000   0.0000   0.0000   0.0000   0.0000   0.0000
     0.0000   0.0000   0.0000   0.0000   0.0000   0.0000

          k = 0.3333 0.5774 0.0000 (126429 PWs)   bands (ev):

   -60.3621 -60.3575 -60.3561 -60.3442 -60.3386 -60.3378 -60.3316 -60.3094
   -60.3091 -60.3075 -60.3007 -60.3006 -60.2959 -60.2913 -60.2756 -60.2754
   -34.6410 -34.6289 -34.6168 -34.6038 -34.5970 -34.5932 -34.5825 -34.5618
   -34.5564 -34.5249 -34.5222 -34.5036 -34.4712 -34.4682 -34.4588 -34.4565
   -34.4558 -34.4411 -34.4324 -34.4280 -34.4262 -34.4244 -34.4230 -34.4218
   -34.4073 -34.4038 -34.3978 -34.3917 -34.3914 -34.3875 -34.3875 -34.3829
   -34.3777 -34.3760 -34.3719 -34.3639 -34.3614 -34.3589 -34.3578 -34.3559
   -34.3550 -34.3438 -34.3319 -34.3239 -34.3068 -34.2950 -34.2249 -34.2174
   -13.2024 -13.1915 -13.1275 -12.4789 -12.4739 -12.3885 -12.0804 -12.0575
   -12.0513 -11.9921 -11.9860 -11.9627 -11.9545 -11.9528 -11.8341 -11.7854
   -11.7760 -11.7224 -11.6013 -11.5938 -11.5651 -11.5635 -11.5619 -11.5575
   -11.5533 -11.5371 -11.4689 -11.3986 -11.3940 -11.3909 -11.3218  -4.8515
    -4.7966  -4.7942  -4.7831  -4.7789  -4.7649  -4.7576  -4.7565  -4.6888
    -4.6853  -4.6741  -4.6081  -4.5952  -4.4886  -4.4384  -4.3671  -4.3161
    -4.2643  -4.2592  -3.9483  -3.9327  -3.8701  -3.8524  -3.8512  -3.7573
    -3.6948  -3.4440  -3.3693  -3.3666  -3.3642  -3.3526  -3.3266  -3.3020
    -3.2945  -3.2862  -3.2829  -3.2424  -3.1787  -3.1785  -3.0433  -3.0209
    -2.9563  -2.8151  -2.7350  -2.6342  -2.6218  -2.6005  -2.5905  -2.5783
    -2.5714  -2.5590  -2.5358  -2.5174  -2.5171  -2.5133  -2.4546  -2.3832
    -2.1671  -2.1641  -2.0517  -2.0196  -2.0150  -1.7967  -1.7756  -1.7447
    -1.7368  -1.6822  -1.5937  -1.5385  -1.5056  -1.4940  -1.4767  -1.4219
    -1.3353  -1.3059  -1.2665  -1.2214  -1.1816  -1.0800  -1.0775  -1.0699
    -1.0633  -1.0553  -1.0524  -1.0513  -1.0400  -1.0253  -0.7704  -0.6608
    -0.5581  -0.4856  -0.4496  -0.4057  -0.2805  -0.2429  -0.2428  -0.2217
    -0.2132  -0.2049  -0.1809  -0.1638  -0.1220   0.1645   0.1734   0.2504
     0.3377   0.3818   0.4254   0.5133   0.5495   1.7230   1.7940   2.2159
     2.4956   2.5752   2.5822   2.6386   2.6544   2.6597   2.6992   2.7272
     2.7417   2.7900   2.7940   2.8164   2.9575   2.9648   2.9909   2.9971
     3.0396   3.0449   3.0470   3.0637   3.0679   3.0704   3.0780   3.1105
     3.1350   3.1468   3.1834   3.2122   3.2502   3.2923   3.3723   3.5499
     3.5564   3.6596   3.6775   3.6842   3.7696   3.8107

     occupation numbers 
     1.0000   1.0000   1.0000   1.0000   1.0000   1.0000   1.0000   1.0000
     1.0000   1.0000   1.0000   1.0000   1.0000   1.0000   1.0000   1.0000
     1.0000   1.0000   1.0000   1.0000   1.0000   1.0000   1.0000   1.0000
     1.0000   1.0000   1.0000   1.0000   1.0000   1.0000   1.0000   1.0000
     1.0000   1.0000   1.0000   1.0000   1.0000   1.0000   1.0000   1.0000
     1.0000   1.0000   1.0000   1.0000   1.0000   1.0000   1.0000   1.0000
     1.0000   1.0000   1.0000   1.0000   1.0000   1.0000   1.0000   1.0000
     1.0000   1.0000   1.0000   1.0000   1.0000   1.0000   1.0000   1.0000
     1.0000   1.0000   1.0000   1.0000   1.0000   1.0000   1.0000   1.0000
     1.0000   1.0000   1.0000   1.0000   1.0000   1.0000   1.0000   1.0000
     1.0000   1.0000   1.0000   1.0000   1.0000   1.0000   1.0000   1.0000
     1.0000   1.0000   1.0000   1.0000   1.0000   1.0000   1.0000   1.0000
     1.0000   1.0000   1.0000   1.0000   1.0000   1.0000   1.0000   1.0000
     1.0000   1.0000   1.0000   1.0000   1.0000   1.0000   1.0000   1.0000
     1.0000   1.0000   1.0000   1.0000   1.0000   1.0000   1.0000   1.0000
     1.0000   1.0000   1.0000   1.0000   1.0000   1.0000   1.0000   1.0000
     1.0000   1.0000   1.0000   1.0000   1.0000   1.0000   1.0000   1.0000
     1.0000   1.0000   1.0000   1.0000   1.0000   1.0000   1.0000   1.0000
     1.0000   1.0000   1.0000   1.0000   1.0000   1.0000   1.0000   1.0000
     1.0000   1.0000   1.0000   1.0000   1.0000   1.0000   1.0000   1.0000
     1.0000   1.0000   1.0000   1.0000   1.0000   1.0000   1.0000   1.0000
     1.0000   1.0000   1.0000   1.0000   1.0000   1.0000   1.0000   1.0000
     1.0000   1.0000   1.0000   1.0000   1.0000   1.0000   1.0000   1.0000
     1.0000   1.0000   1.0000   1.0000   1.0000   1.0000   1.0000   1.0000
     1.0000   1.0000   1.0000   1.0000   1.0000   1.0000   1.0000   1.0000
     1.0000   1.0000   1.0000   0.9999   0.9999   0.0003   0.0001   0.0000
     0.0000   0.0000   0.0000   0.0000   0.0000   0.0000   0.0000   0.0000
     0.0000   0.0000   0.0000   0.0000   0.0000   0.0000   0.0000   0.0000
     0.0000   0.0000   0.0000   0.0000   0.0000   0.0000   0.0000   0.0000
     0.0000   0.0000   0.0000   0.0000   0.0000   0.0000   0.0000   0.0000
     0.0000   0.0000   0.0000   0.0000   0.0000   0.0000

 ------ SPIN DOWN ----------


          k = 0.0000 0.0000 0.0000 (126355 PWs)   bands (ev):

   -60.3634 -60.3560 -60.3559 -60.3448 -60.3379 -60.3378 -60.3322 -60.3096
   -60.3095 -60.3077 -60.3000 -60.2999 -60.2965 -60.2915 -60.2755 -60.2754
   -34.6615 -34.6615 -34.6172 -34.5969 -34.5894 -34.5894 -34.5648 -34.5648
   -34.5255 -34.4864 -34.4753 -34.4745 -34.4745 -34.4724 -34.4724 -34.4521
   -34.4521 -34.4506 -34.4481 -34.4392 -34.4353 -34.4323 -34.4322 -34.4294
   -34.4294 -34.4051 -34.4050 -34.4005 -34.4004 -34.3972 -34.3863 -34.3863
   -34.3856 -34.3853 -34.3773 -34.3772 -34.3672 -34.3671 -34.3563 -34.3561
   -34.3373 -34.3373 -34.3346 -34.3059 -34.2934 -34.2934 -34.2152 -34.2151
   -13.4635 -12.7102 -12.7101 -12.6861 -12.6726 -12.6726 -12.5511 -12.1697
   -11.8947 -11.8947 -11.8474 -11.8459 -11.8459 -11.8117 -11.7195 -11.7195
   -11.7095 -11.7094 -11.6942 -11.6754 -11.6753 -11.6682 -11.5586 -11.4798
   -11.4798 -11.4567 -11.4567 -11.4395 -11.4394 -11.4354 -11.4272  -5.2006
    -5.0979  -5.0979  -4.9847  -4.5273  -4.5248  -4.5248  -4.4949  -4.4743
    -4.4743  -4.4265  -4.4096  -4.4096  -4.3878  -4.3878  -4.3674  -4.3120
    -4.3120  -4.2856  -4.2646  -4.2347  -4.2347  -4.1430  -3.9423  -3.9423
    -3.4818  -3.4818  -3.4374  -3.3175  -3.2613  -3.2495  -3.2495  -3.1809
    -3.1809  -3.0897  -3.0509  -3.0407  -3.0407  -3.0322  -3.0321  -2.9946
    -2.9730  -2.9730  -2.8490  -2.8490  -2.7261  -2.6699  -2.6699  -2.6398
    -2.6139  -2.6139  -2.5888  -2.4512  -2.4424  -2.4424  -2.3215  -2.3215
    -2.2968  -2.2455  -2.1603  -2.1603  -2.0314  -2.0314  -1.9350  -1.9223
    -1.9223  -1.9039  -1.6022  -1.6022  -1.2946  -1.2904  -1.2904  -1.2869
    -1.2729  -1.2729  -1.1844  -1.1590  -1.1077  -1.1077  -1.0602  -1.0601
    -1.0350  -1.0016  -1.0016  -0.9172  -0.8486  -0.8486  -0.7947  -0.7401
    -0.7401  -0.5405  -0.5405  -0.4561  -0.2447  -0.1678  -0.1677  -0.1353
    -0.1228  -0.1199  -0.1199  -0.0464  -0.0463  -0.0032  -0.0032   0.0254
     0.0366   0.0774   0.0775   0.4359   0.6833   1.7419   1.7419   2.6690
     2.6853   2.6919   2.6919   2.7268   2.7268   2.7366   2.7466   2.7466
     2.7720   2.7720   2.8076   2.8146   2.8147   2.8649   2.9130   2.9220
     2.9220   2.9759   3.1583   3.1583   3.2737   3.2935   3.2935   3.3255
     3.3256   3.3435   3.3550   3.3550   3.3860   3.4184   3.4184   3.4550
     3.4550   3.4613   3.5095   3.5095   3.5952   3.6600

     occupation numbers 
     1.0000   1.0000   1.0000   1.0000   1.0000   1.0000   1.0000   1.0000
     1.0000   1.0000   1.0000   1.0000   1.0000   1.0000   1.0000   1.0000
     1.0000   1.0000   1.0000   1.0000   1.0000   1.0000   1.0000   1.0000
     1.0000   1.0000   1.0000   1.0000   1.0000   1.0000   1.0000   1.0000
     1.0000   1.0000   1.0000   1.0000   1.0000   1.0000   1.0000   1.0000
     1.0000   1.0000   1.0000   1.0000   1.0000   1.0000   1.0000   1.0000
     1.0000   1.0000   1.0000   1.0000   1.0000   1.0000   1.0000   1.0000
     1.0000   1.0000   1.0000   1.0000   1.0000   1.0000   1.0000   1.0000
     1.0000   1.0000   1.0000   1.0000   1.0000   1.0000   1.0000   1.0000
     1.0000   1.0000   1.0000   1.0000   1.0000   1.0000   1.0000   1.0000
     1.0000   1.0000   1.0000   1.0000   1.0000   1.0000   1.0000   1.0000
     1.0000   1.0000   1.0000   1.0000   1.0000   1.0000   1.0000   1.0000
     1.0000   1.0000   1.0000   1.0000   1.0000   1.0000   1.0000   1.0000
     1.0000   1.0000   1.0000   1.0000   1.0000   1.0000   1.0000   1.0000
     1.0000   1.0000   1.0000   1.0000   1.0000   1.0000   1.0000   1.0000
     1.0000   1.0000   1.0000   1.0000   1.0000   1.0000   1.0000   1.0000
     1.0000   1.0000   1.0000   1.0000   1.0000   1.0000   1.0000   1.0000
     1.0000   1.0000   1.0000   1.0000   1.0000   1.0000   1.0000   1.0000
     1.0000   1.0000   1.0000   1.0000   1.0000   1.0000   1.0000   1.0000
     1.0000   1.0000   1.0000   1.0000   1.0000   1.0000   1.0000   1.0000
     1.0000   1.0000   1.0000   1.0000   1.0000   1.0000   1.0000   1.0000
     1.0000   1.0000   1.0000   1.0000   1.0000   1.0000   1.0000   1.0000
     1.0000   1.0000   1.0000   1.0000   1.0000   1.0000   1.0000   1.0000
     1.0000   1.0000   1.0000   1.0000   1.0000   1.0000   1.0000   1.0000
     1.0000   1.0000   1.0000   1.0000   1.0000   1.0000   1.0000   1.0000
     1.0000   1.0000   1.0000   1.0000   0.9992   0.0002   0.0002   0.0000
     0.0000   0.0000   0.0000   0.0000   0.0000   0.0000   0.0000   0.0000
     0.0000   0.0000   0.0000   0.0000   0.0000   0.0000   0.0000   0.0000
     0.0000   0.0000   0.0000   0.0000   0.0000   0.0000   0.0000   0.0000
     0.0000   0.0000   0.0000   0.0000   0.0000   0.0000   0.0000   0.0000
     0.0000   0.0000   0.0000   0.0000   0.0000   0.0000

          k = 0.0000 0.1925 0.0000 (126305 PWs)   bands (ev):

   -60.3631 -60.3563 -60.3560 -60.3446 -60.3380 -60.3378 -60.3321 -60.3095
   -60.3095 -60.3076 -60.3002 -60.3001 -60.2963 -60.2914 -60.2755 -60.2754
   -34.6587 -34.6566 -34.6138 -34.5995 -34.5914 -34.5887 -34.5693 -34.5616
   -34.5323 -34.5084 -34.4916 -34.4832 -34.4749 -34.4679 -34.4560 -34.4539
   -34.4524 -34.4442 -34.4439 -34.4397 -34.4350 -34.4291 -34.4282 -34.4241
   -34.4210 -34.4053 -34.4053 -34.4032 -34.3970 -34.3949 -34.3876 -34.3873
   -34.3851 -34.3779 -34.3775 -34.3731 -34.3679 -34.3672 -34.3562 -34.3561
   -34.3415 -34.3399 -34.3343 -34.3062 -34.2970 -34.2936 -34.2175 -34.2155
   -13.4388 -12.8938 -12.7912 -12.7477 -12.5585 -12.5123 -12.4247 -12.1599
   -11.9502 -11.9176 -11.8865 -11.8620 -11.8454 -11.8112 -11.7858 -11.7626
   -11.7165 -11.7086 -11.6812 -11.6776 -11.6248 -11.5799 -11.5470 -11.5179
   -11.4997 -11.4823 -11.4673 -11.4452 -11.4379 -11.4034 -11.3839  -5.1634
    -5.0645  -5.0638  -4.9552  -4.5842  -4.5503  -4.5487  -4.5338  -4.5196
    -4.4891  -4.4695  -4.4410  -4.4282  -4.4220  -4.4060  -4.3881  -4.3880
    -4.3005  -4.2677  -4.2509  -4.1636  -4.0950  -4.0863  -3.9109  -3.8893
    -3.4687  -3.4682  -3.4186  -3.3331  -3.3030  -3.2764  -3.2746  -3.1921
    -3.1631  -3.1604  -3.1300  -3.1079  -3.0985  -3.0842  -3.0765  -3.0088
    -3.0040  -2.8985  -2.7596  -2.7525  -2.6922  -2.6769  -2.6441  -2.6417
    -2.5939  -2.5875  -2.5609  -2.5559  -2.5412  -2.3936  -2.2976  -2.2927
    -2.1616  -2.1513  -2.1128  -2.0988  -2.0642  -2.0158  -1.9989  -1.9728
    -1.9264  -1.8008  -1.6350  -1.5982  -1.4350  -1.4128  -1.3173  -1.2943
    -1.2472  -1.2421  -1.2238  -1.2091  -1.1492  -1.1460  -1.0689  -1.0624
    -1.0200  -0.9642  -0.9117  -0.9040  -0.8229  -0.8005  -0.7503  -0.6735
    -0.6630  -0.6119  -0.6032  -0.5136  -0.3294  -0.2623  -0.2276  -0.1562
    -0.1313  -0.1259  -0.0507  -0.0373  -0.0302   0.0136   0.0142   0.0361
     0.1122   0.1857   0.1909   0.4408   0.6669   1.7419   1.7471   2.5696
     2.5841   2.6820   2.6896   2.7119   2.7179   2.7226   2.7314   2.7581
     2.7625   2.7864   2.7936   2.8261   2.8301   2.8658   2.8938   2.9649
     2.9714   3.0049   3.1112   3.1171   3.1877   3.2227   3.2408   3.2533
     3.2827   3.2894   3.3209   3.3426   3.3685   3.3803   3.4201   3.4371
     3.5147   3.5342   3.6081   3.6275   3.6438   3.6439

     occupation numbers 
     1.0000   1.0000   1.0000   1.0000   1.0000   1.0000   1.0000   1.0000
     1.0000   1.0000   1.0000   1.0000   1.0000   1.0000   1.0000   1.0000
     1.0000   1.0000   1.0000   1.0000   1.0000   1.0000   1.0000   1.0000
     1.0000   1.0000   1.0000   1.0000   1.0000   1.0000   1.0000   1.0000
     1.0000   1.0000   1.0000   1.0000   1.0000   1.0000   1.0000   1.0000
     1.0000   1.0000   1.0000   1.0000   1.0000   1.0000   1.0000   1.0000
     1.0000   1.0000   1.0000   1.0000   1.0000   1.0000   1.0000   1.0000
     1.0000   1.0000   1.0000   1.0000   1.0000   1.0000   1.0000   1.0000
     1.0000   1.0000   1.0000   1.0000   1.0000   1.0000   1.0000   1.0000
     1.0000   1.0000   1.0000   1.0000   1.0000   1.0000   1.0000   1.0000
     1.0000   1.0000   1.0000   1.0000   1.0000   1.0000   1.0000   1.0000
     1.0000   1.0000   1.0000   1.0000   1.0000   1.0000   1.0000   1.0000
     1.0000   1.0000   1.0000   1.0000   1.0000   1.0000   1.0000   1.0000
     1.0000   1.0000   1.0000   1.0000   1.0000   1.0000   1.0000   1.0000
     1.0000   1.0000   1.0000   1.0000   1.0000   1.0000   1.0000   1.0000
     1.0000   1.0000   1.0000   1.0000   1.0000   1.0000   1.0000   1.0000
     1.0000   1.0000   1.0000   1.0000   1.0000   1.0000   1.0000   1.0000
     1.0000   1.0000   1.0000   1.0000   1.0000   1.0000   1.0000   1.0000
     1.0000   1.0000   1.0000   1.0000   1.0000   1.0000   1.0000   1.0000
     1.0000   1.0000   1.0000   1.0000   1.0000   1.0000   1.0000   1.0000
     1.0000   1.0000   1.0000   1.0000   1.0000   1.0000   1.0000   1.0000
     1.0000   1.0000   1.0000   1.0000   1.0000   1.0000   1.0000   1.0000
     1.0000   1.0000   1.0000   1.0000   1.0000   1.0000   1.0000   1.0000
     1.0000   1.0000   1.0000   1.0000   1.0000   1.0000   1.0000   1.0000
     1.0000   1.0000   1.0000   1.0000   1.0000   1.0000   1.0000   1.0000
     1.0000   1.0000   1.0000   1.0000   0.9994   0.0002   0.0002   0.0000
     0.0000   0.0000   0.0000   0.0000   0.0000   0.0000   0.0000   0.0000
     0.0000   0.0000   0.0000   0.0000   0.0000   0.0000   0.0000   0.0000
     0.0000   0.0000   0.0000   0.0000   0.0000   0.0000   0.0000   0.0000
     0.0000   0.0000   0.0000   0.0000   0.0000   0.0000   0.0000   0.0000
     0.0000   0.0000   0.0000   0.0000   0.0000   0.0000

          k = 0.0000 0.3849 0.0000 (126328 PWs)   bands (ev):

   -60.3626 -60.3571 -60.3560 -60.3444 -60.3384 -60.3378 -60.3318 -60.3094
   -60.3093 -60.3075 -60.3005 -60.3003 -60.2961 -60.2914 -60.2756 -60.2754
   -34.6514 -34.6431 -34.6101 -34.6064 -34.5950 -34.5906 -34.5714 -34.5539
   -34.5488 -34.5335 -34.5100 -34.4847 -34.4758 -34.4731 -34.4586 -34.4562
   -34.4528 -34.4421 -34.4335 -34.4311 -34.4307 -34.4276 -34.4260 -34.4122
   -34.4081 -34.4057 -34.4041 -34.3970 -34.3919 -34.3909 -34.3888 -34.3853
   -34.3829 -34.3778 -34.3765 -34.3763 -34.3664 -34.3567 -34.3561 -34.3524
   -34.3498 -34.3452 -34.3358 -34.3073 -34.3069 -34.2935 -34.2223 -34.2161
   -13.3662 -13.0840 -12.8513 -12.7989 -12.4013 -12.3668 -12.2137 -12.1318
   -12.0435 -12.0367 -11.9913 -11.9348 -11.8966 -11.8250 -11.7523 -11.7375
   -11.7054 -11.6828 -11.6815 -11.6691 -11.6307 -11.5936 -11.5608 -11.5212
   -11.5007 -11.4769 -11.4644 -11.4457 -11.4383 -11.3734 -11.3476  -5.0581
    -4.9707  -4.9673  -4.8703  -4.7242  -4.6762  -4.6593  -4.6166  -4.6069
    -4.5747  -4.5091  -4.4999  -4.4389  -4.4229  -4.4068  -4.3627  -4.3547
    -4.3072  -4.2481  -4.2263  -4.1698  -4.0311  -3.9359  -3.7422  -3.7119
    -3.5325  -3.4303  -3.4276  -3.3751  -3.3302  -3.3088  -3.3071  -3.2875
    -3.2623  -3.2455  -3.2383  -3.2010  -3.1547  -3.1518  -3.1250  -3.0073
    -2.9342  -2.7977  -2.6949  -2.6827  -2.6539  -2.6369  -2.6271  -2.6267
    -2.5981  -2.5612  -2.5430  -2.4815  -2.4403  -2.4110  -2.3806  -2.3251
    -2.3085  -2.2394  -2.1084  -2.0832  -2.0147  -1.9376  -1.8527  -1.7591
    -1.7490  -1.6843  -1.6789  -1.5772  -1.5748  -1.4686  -1.3840  -1.3649
    -1.3191  -1.3113  -1.2281  -1.2214  -1.1727  -1.1661  -1.1367  -1.1240
    -1.0136  -1.0044  -0.9508  -0.9076  -0.8182  -0.7883  -0.7485  -0.6811
    -0.6186  -0.6059  -0.5018  -0.4650  -0.3845  -0.3111  -0.2702  -0.2341
    -0.2000  -0.1953  -0.0092   0.0058   0.0178   0.0391   0.0516   0.0661
     0.2930   0.3212   0.3299   0.4546   0.6181   1.7418   1.7606   2.4269
     2.4571   2.6065   2.6342   2.6568   2.6880   2.6954   2.7197   2.7404
     2.7580   2.7738   2.8040   2.8429   2.8728   2.8996   2.9323   2.9962
     3.0082   3.0442   3.0645   3.0954   3.1032   3.1217   3.1479   3.1759
     3.2020   3.2525   3.2725   3.3015   3.3422   3.3516   3.3703   3.4666
     3.5103   3.5354   3.5805   3.6567   3.7405   3.7438

     occupation numbers 
     1.0000   1.0000   1.0000   1.0000   1.0000   1.0000   1.0000   1.0000
     1.0000   1.0000   1.0000   1.0000   1.0000   1.0000   1.0000   1.0000
     1.0000   1.0000   1.0000   1.0000   1.0000   1.0000   1.0000   1.0000
     1.0000   1.0000   1.0000   1.0000   1.0000   1.0000   1.0000   1.0000
     1.0000   1.0000   1.0000   1.0000   1.0000   1.0000   1.0000   1.0000
     1.0000   1.0000   1.0000   1.0000   1.0000   1.0000   1.0000   1.0000
     1.0000   1.0000   1.0000   1.0000   1.0000   1.0000   1.0000   1.0000
     1.0000   1.0000   1.0000   1.0000   1.0000   1.0000   1.0000   1.0000
     1.0000   1.0000   1.0000   1.0000   1.0000   1.0000   1.0000   1.0000
     1.0000   1.0000   1.0000   1.0000   1.0000   1.0000   1.0000   1.0000
     1.0000   1.0000   1.0000   1.0000   1.0000   1.0000   1.0000   1.0000
     1.0000   1.0000   1.0000   1.0000   1.0000   1.0000   1.0000   1.0000
     1.0000   1.0000   1.0000   1.0000   1.0000   1.0000   1.0000   1.0000
     1.0000   1.0000   1.0000   1.0000   1.0000   1.0000   1.0000   1.0000
     1.0000   1.0000   1.0000   1.0000   1.0000   1.0000   1.0000   1.0000
     1.0000   1.0000   1.0000   1.0000   1.0000   1.0000   1.0000   1.0000
     1.0000   1.0000   1.0000   1.0000   1.0000   1.0000   1.0000   1.0000
     1.0000   1.0000   1.0000   1.0000   1.0000   1.0000   1.0000   1.0000
     1.0000   1.0000   1.0000   1.0000   1.0000   1.0000   1.0000   1.0000
     1.0000   1.0000   1.0000   1.0000   1.0000   1.0000   1.0000   1.0000
     1.0000   1.0000   1.0000   1.0000   1.0000   1.0000   1.0000   1.0000
     1.0000   1.0000   1.0000   1.0000   1.0000   1.0000   1.0000   1.0000
     1.0000   1.0000   1.0000   1.0000   1.0000   1.0000   1.0000   1.0000
     1.0000   1.0000   1.0000   1.0000   1.0000   1.0000   1.0000   1.0000
     1.0000   1.0000   1.0000   1.0000   1.0000   1.0000   1.0000   1.0000
     1.0000   1.0000   1.0000   1.0000   0.9997   0.0002   0.0002   0.0000
     0.0000   0.0000   0.0000   0.0000   0.0000   0.0000   0.0000   0.0000
     0.0000   0.0000   0.0000   0.0000   0.0000   0.0000   0.0000   0.0000
     0.0000   0.0000   0.0000   0.0000   0.0000   0.0000   0.0000   0.0000
     0.0000   0.0000   0.0000   0.0000   0.0000   0.0000   0.0000   0.0000
     0.0000   0.0000   0.0000   0.0000   0.0000   0.0000

          k = 0.0000-0.5774 0.0000 (126288 PWs)   bands (ev):

   -60.3623 -60.3575 -60.3560 -60.3442 -60.3386 -60.3377 -60.3316 -60.3094
   -60.3092 -60.3075 -60.3007 -60.3004 -60.2960 -60.2913 -60.2756 -60.2754
   -34.6460 -34.6289 -34.6176 -34.6143 -34.5938 -34.5897 -34.5692 -34.5579
   -34.5480 -34.5457 -34.5198 -34.4809 -34.4799 -34.4720 -34.4654 -34.4595
   -34.4530 -34.4428 -34.4326 -34.4275 -34.4253 -34.4218 -34.4213 -34.4076
   -34.4055 -34.4052 -34.3986 -34.3966 -34.3965 -34.3905 -34.3896 -34.3890
   -34.3815 -34.3774 -34.3687 -34.3676 -34.3672 -34.3582 -34.3565 -34.3551
   -34.3550 -34.3377 -34.3369 -34.3159 -34.3081 -34.2933 -34.2248 -34.2164
   -13.2685 -13.2219 -12.8717 -12.8172 -12.2459 -12.2291 -12.2224 -12.1580
   -12.0967 -12.0768 -12.0175 -11.9530 -11.9431 -11.9007 -11.7091 -11.7050
   -11.6996 -11.6745 -11.6660 -11.6639 -11.6582 -11.6023 -11.5962 -11.5505
   -11.4796 -11.4614 -11.4579 -11.4427 -11.4384 -11.3624 -11.3347  -4.9249
    -4.8776  -4.8669  -4.8475  -4.7885  -4.7842  -4.7603  -4.7101  -4.6596
    -4.6574  -4.4948  -4.4936  -4.4514  -4.4369  -4.4132  -4.3423  -4.3285
    -4.2981  -4.2452  -4.2295  -4.1440  -4.0345  -3.8109  -3.7347  -3.5668
    -3.5074  -3.4373  -3.4367  -3.3823  -3.3711  -3.3629  -3.3339  -3.3317
    -3.3056  -3.2948  -3.2807  -3.2396  -3.1974  -3.1733  -3.1291  -2.9908
    -2.9557  -2.6688  -2.6593  -2.6332  -2.6300  -2.6012  -2.5874  -2.5719
    -2.5644  -2.5576  -2.5514  -2.5266  -2.5190  -2.4292  -2.4288  -2.3924
    -2.3587  -2.2306  -2.1077  -2.0373  -2.0220  -1.9290  -1.8558  -1.8284
    -1.6920  -1.5080  -1.4955  -1.4375  -1.4056  -1.4014  -1.3964  -1.3738
    -1.3602  -1.3528  -1.3286  -1.3156  -1.2901  -1.2143  -1.1908  -1.1727
    -1.1654  -1.1644  -0.9595  -0.9296  -0.8083  -0.7244  -0.7029  -0.6548
    -0.6355  -0.5986  -0.4403  -0.4146  -0.3565  -0.3162  -0.2954  -0.2702
    -0.2509  -0.2231   0.0035   0.0313   0.0322   0.0497   0.0694   0.0790
     0.3722   0.3800   0.4036   0.4681   0.5708   1.7413   1.7692   2.3630
     2.4023   2.5686   2.5978   2.6101   2.6591   2.6835   2.7167   2.7413
     2.7607   2.7702   2.8059   2.8359   2.8853   2.9955   3.0037   3.0195
     3.0250   3.0417   3.0455   3.0573   3.0617   3.0752   3.0770   3.1309
     3.1451   3.2034   3.2987   3.3026   3.3260   3.3268   3.3446   3.4973
     3.5190   3.5311   3.6210   3.6623   3.6818   3.7451

     occupation numbers 
     1.0000   1.0000   1.0000   1.0000   1.0000   1.0000   1.0000   1.0000
     1.0000   1.0000   1.0000   1.0000   1.0000   1.0000   1.0000   1.0000
     1.0000   1.0000   1.0000   1.0000   1.0000   1.0000   1.0000   1.0000
     1.0000   1.0000   1.0000   1.0000   1.0000   1.0000   1.0000   1.0000
     1.0000   1.0000   1.0000   1.0000   1.0000   1.0000   1.0000   1.0000
     1.0000   1.0000   1.0000   1.0000   1.0000   1.0000   1.0000   1.0000
     1.0000   1.0000   1.0000   1.0000   1.0000   1.0000   1.0000   1.0000
     1.0000   1.0000   1.0000   1.0000   1.0000   1.0000   1.0000   1.0000
     1.0000   1.0000   1.0000   1.0000   1.0000   1.0000   1.0000   1.0000
     1.0000   1.0000   1.0000   1.0000   1.0000   1.0000   1.0000   1.0000
     1.0000   1.0000   1.0000   1.0000   1.0000   1.0000   1.0000   1.0000
     1.0000   1.0000   1.0000   1.0000   1.0000   1.0000   1.0000   1.0000
     1.0000   1.0000   1.0000   1.0000   1.0000   1.0000   1.0000   1.0000
     1.0000   1.0000   1.0000   1.0000   1.0000   1.0000   1.0000   1.0000
     1.0000   1.0000   1.0000   1.0000   1.0000   1.0000   1.0000   1.0000
     1.0000   1.0000   1.0000   1.0000   1.0000   1.0000   1.0000   1.0000
     1.0000   1.0000   1.0000   1.0000   1.0000   1.0000   1.0000   1.0000
     1.0000   1.0000   1.0000   1.0000   1.0000   1.0000   1.0000   1.0000
     1.0000   1.0000   1.0000   1.0000   1.0000   1.0000   1.0000   1.0000
     1.0000   1.0000   1.0000   1.0000   1.0000   1.0000   1.0000   1.0000
     1.0000   1.0000   1.0000   1.0000   1.0000   1.0000   1.0000   1.0000
     1.0000   1.0000   1.0000   1.0000   1.0000   1.0000   1.0000   1.0000
     1.0000   1.0000   1.0000   1.0000   1.0000   1.0000   1.0000   1.0000
     1.0000   1.0000   1.0000   1.0000   1.0000   1.0000   1.0000   1.0000
     1.0000   1.0000   1.0000   1.0000   1.0000   1.0000   1.0000   1.0000
     1.0000   1.0000   1.0000   1.0000   0.9998   0.0002   0.0001   0.0000
     0.0000   0.0000   0.0000   0.0000   0.0000   0.0000   0.0000   0.0000
     0.0000   0.0000   0.0000   0.0000   0.0000   0.0000   0.0000   0.0000
     0.0000   0.0000   0.0000   0.0000   0.0000   0.0000   0.0000   0.0000
     0.0000   0.0000   0.0000   0.0000   0.0000   0.0000   0.0000   0.0000
     0.0000   0.0000   0.0000   0.0000   0.0000   0.0000

          k = 0.1667 0.2887 0.0000 (126343 PWs)   bands (ev):

   -60.3627 -60.3568 -60.3560 -60.3444 -60.3383 -60.3378 -60.3318 -60.3094
   -60.3093 -60.3076 -60.3004 -60.3003 -60.2961 -60.2914 -60.2756 -60.2754
   -34.6535 -34.6475 -34.6081 -34.6043 -34.5992 -34.5826 -34.5762 -34.5591
   -34.5406 -34.5287 -34.5010 -34.4941 -34.4736 -34.4659 -34.4564 -34.4549
   -34.4531 -34.4424 -34.4386 -34.4341 -34.4301 -34.4281 -34.4263 -34.4245
   -34.4066 -34.4048 -34.4025 -34.3968 -34.3940 -34.3906 -34.3879 -34.3868
   -34.3842 -34.3789 -34.3773 -34.3737 -34.3670 -34.3585 -34.3560 -34.3556
   -34.3470 -34.3441 -34.3357 -34.3077 -34.3026 -34.2940 -34.2209 -34.2160
   -13.3901 -12.9931 -12.9552 -12.6427 -12.5767 -12.3172 -12.2997 -12.1412
   -12.0385 -11.9861 -11.9696 -11.8636 -11.8522 -11.8285 -11.7975 -11.7653
   -11.7480 -11.7001 -11.6904 -11.6253 -11.6008 -11.5873 -11.5361 -11.5298
   -11.5035 -11.4945 -11.4884 -11.4468 -11.4059 -11.3976 -11.3514  -5.0918
    -5.0003  -4.9986  -4.8980  -4.6660  -4.6413  -4.6150  -4.5764  -4.5487
    -4.5419  -4.5216  -4.5082  -4.4887  -4.4479  -4.4410  -4.3866  -4.3601
    -4.2944  -4.2338  -4.1994  -4.0970  -4.0523  -3.9818  -3.8803  -3.7087
    -3.4493  -3.4466  -3.4374  -3.4150  -3.3549  -3.3260  -3.2880  -3.2689
    -3.2324  -3.2246  -3.1868  -3.1742  -3.1339  -3.1157  -3.0528  -2.9774
    -2.9359  -2.8891  -2.8213  -2.7772  -2.6913  -2.6663  -2.6235  -2.5997
    -2.5710  -2.5445  -2.5163  -2.4804  -2.3927  -2.3603  -2.3061  -2.2787
    -2.2584  -2.2348  -2.2133  -2.1448  -2.0547  -1.9578  -1.8708  -1.7777
    -1.7433  -1.7420  -1.6471  -1.6189  -1.5964  -1.4699  -1.3835  -1.3391
    -1.3122  -1.2583  -1.2396  -1.2289  -1.1985  -1.1330  -1.1008  -1.0518
    -0.9976  -0.9645  -0.9527  -0.9186  -0.8269  -0.7971  -0.7375  -0.6819
    -0.6224  -0.5913  -0.5462  -0.5260  -0.3527  -0.3395  -0.2288  -0.1970
    -0.1386  -0.1316  -0.1151  -0.0994  -0.0519   0.0650   0.1222   0.1523
     0.2121   0.2201   0.3427   0.4491   0.6339   1.7376   1.7613   2.4061
     2.5931   2.6060   2.6308   2.6678   2.6819   2.7089   2.7236   2.7441
     2.7671   2.7751   2.8094   2.8308   2.8578   2.8802   2.9249   2.9832
     3.0048   3.0416   3.0701   3.1018   3.1360   3.1528   3.1713   3.1795
     3.2171   3.2334   3.2935   3.3025   3.3035   3.3649   3.3814   3.4627
     3.5323   3.5517   3.6338   3.6843   3.7102   3.7229

     occupation numbers 
     1.0000   1.0000   1.0000   1.0000   1.0000   1.0000   1.0000   1.0000
     1.0000   1.0000   1.0000   1.0000   1.0000   1.0000   1.0000   1.0000
     1.0000   1.0000   1.0000   1.0000   1.0000   1.0000   1.0000   1.0000
     1.0000   1.0000   1.0000   1.0000   1.0000   1.0000   1.0000   1.0000
     1.0000   1.0000   1.0000   1.0000   1.0000   1.0000   1.0000   1.0000
     1.0000   1.0000   1.0000   1.0000   1.0000   1.0000   1.0000   1.0000
     1.0000   1.0000   1.0000   1.0000   1.0000   1.0000   1.0000   1.0000
     1.0000   1.0000   1.0000   1.0000   1.0000   1.0000   1.0000   1.0000
     1.0000   1.0000   1.0000   1.0000   1.0000   1.0000   1.0000   1.0000
     1.0000   1.0000   1.0000   1.0000   1.0000   1.0000   1.0000   1.0000
     1.0000   1.0000   1.0000   1.0000   1.0000   1.0000   1.0000   1.0000
     1.0000   1.0000   1.0000   1.0000   1.0000   1.0000   1.0000   1.0000
     1.0000   1.0000   1.0000   1.0000   1.0000   1.0000   1.0000   1.0000
     1.0000   1.0000   1.0000   1.0000   1.0000   1.0000   1.0000   1.0000
     1.0000   1.0000   1.0000   1.0000   1.0000   1.0000   1.0000   1.0000
     1.0000   1.0000   1.0000   1.0000   1.0000   1.0000   1.0000   1.0000
     1.0000   1.0000   1.0000   1.0000   1.0000   1.0000   1.0000   1.0000
     1.0000   1.0000   1.0000   1.0000   1.0000   1.0000   1.0000   1.0000
     1.0000   1.0000   1.0000   1.0000   1.0000   1.0000   1.0000   1.0000
     1.0000   1.0000   1.0000   1.0000   1.0000   1.0000   1.0000   1.0000
     1.0000   1.0000   1.0000   1.0000   1.0000   1.0000   1.0000   1.0000
     1.0000   1.0000   1.0000   1.0000   1.0000   1.0000   1.0000   1.0000
     1.0000   1.0000   1.0000   1.0000   1.0000   1.0000   1.0000   1.0000
     1.0000   1.0000   1.0000   1.0000   1.0000   1.0000   1.0000   1.0000
     1.0000   1.0000   1.0000   1.0000   1.0000   1.0000   1.0000   1.0000
     1.0000   1.0000   1.0000   1.0000   0.9996   0.0002   0.0002   0.0000
     0.0000   0.0000   0.0000   0.0000   0.0000   0.0000   0.0000   0.0000
     0.0000   0.0000   0.0000   0.0000   0.0000   0.0000   0.0000   0.0000
     0.0000   0.0000   0.0000   0.0000   0.0000   0.0000   0.0000   0.0000
     0.0000   0.0000   0.0000   0.0000   0.0000   0.0000   0.0000   0.0000
     0.0000   0.0000   0.0000   0.0000   0.0000   0.0000

          k = 0.1667 0.4811 0.0000 (126406 PWs)   bands (ev):

   -60.3623 -60.3574 -60.3561 -60.3442 -60.3386 -60.3378 -60.3316 -60.3094
   -60.3092 -60.3075 -60.3007 -60.3005 -60.2960 -60.2913 -60.2756 -60.2754
   -34.6457 -34.6328 -34.6153 -34.6059 -34.6005 -34.5870 -34.5731 -34.5614
   -34.5556 -34.5311 -34.5168 -34.4973 -34.4722 -34.4718 -34.4589 -34.4547
   -34.4489 -34.4423 -34.4414 -34.4328 -34.4278 -34.4249 -34.4206 -34.4080
   -34.4065 -34.4043 -34.4016 -34.3978 -34.3916 -34.3898 -34.3872 -34.3835
   -34.3798 -34.3774 -34.3725 -34.3708 -34.3638 -34.3572 -34.3564 -34.3552
   -34.3535 -34.3418 -34.3369 -34.3158 -34.3068 -34.2942 -34.2243 -34.2168
   -13.2963 -13.1514 -13.0121 -12.6497 -12.4313 -12.2424 -12.1609 -12.1139
   -12.0852 -12.0496 -12.0063 -11.9756 -11.8927 -11.8497 -11.8110 -11.7701
   -11.7513 -11.6865 -11.6421 -11.6233 -11.6083 -11.5818 -11.5676 -11.5467
   -11.5067 -11.5007 -11.4737 -11.4220 -11.4087 -11.3772 -11.3301  -4.9614
    -4.8878  -4.8804  -4.7949  -4.7835  -4.7544  -4.7128  -4.6825  -4.6411
    -4.6262  -4.6033  -4.5554  -4.5014  -4.4855  -4.4127  -4.3635  -4.3492
    -4.2729  -4.2541  -4.1017  -4.0535  -3.9679  -3.8757  -3.7800  -3.6585
    -3.5749  -3.4198  -3.4071  -3.3831  -3.3533  -3.3405  -3.3238  -3.3086
    -3.2956  -3.2797  -3.2667  -3.2323  -3.2276  -3.1414  -3.1010  -3.0031
    -2.9151  -2.8190  -2.7429  -2.6956  -2.6583  -2.6275  -2.5979  -2.5772
    -2.5481  -2.5132  -2.4987  -2.4795  -2.4514  -2.4267  -2.3951  -2.3787
    -2.2997  -2.2571  -2.1587  -2.0332  -1.9999  -1.8648  -1.8147  -1.7709
    -1.6947  -1.6716  -1.6032  -1.5004  -1.4802  -1.4474  -1.3940  -1.3608
    -1.3537  -1.3393  -1.3056  -1.2616  -1.2210  -1.2102  -1.1624  -1.1230
    -1.0871  -1.0305  -0.9939  -0.9684  -0.8914  -0.7974  -0.7611  -0.6914
    -0.5740  -0.5501  -0.4544  -0.4355  -0.3286  -0.3021  -0.2610  -0.2410
    -0.2207  -0.1899  -0.1093  -0.0940  -0.0563   0.1093   0.1473   0.2160
     0.2872   0.3586   0.4442   0.4649   0.5773   1.7313   1.7802   2.2819
     2.5271   2.5364   2.5980   2.6271   2.6671   2.6849   2.7086   2.7226
     2.7622   2.7884   2.7975   2.8292   2.8890   2.9546   2.9836   3.0018
     3.0244   3.0415   3.0593   3.0730   3.0848   3.1047   3.1115   3.1249
     3.1560   3.1676   3.1937   3.2389   3.3025   3.3444   3.4119   3.4487
     3.5313   3.5843   3.6742   3.7151   3.7549   3.7656

     occupation numbers 
     1.0000   1.0000   1.0000   1.0000   1.0000   1.0000   1.0000   1.0000
     1.0000   1.0000   1.0000   1.0000   1.0000   1.0000   1.0000   1.0000
     1.0000   1.0000   1.0000   1.0000   1.0000   1.0000   1.0000   1.0000
     1.0000   1.0000   1.0000   1.0000   1.0000   1.0000   1.0000   1.0000
     1.0000   1.0000   1.0000   1.0000   1.0000   1.0000   1.0000   1.0000
     1.0000   1.0000   1.0000   1.0000   1.0000   1.0000   1.0000   1.0000
     1.0000   1.0000   1.0000   1.0000   1.0000   1.0000   1.0000   1.0000
     1.0000   1.0000   1.0000   1.0000   1.0000   1.0000   1.0000   1.0000
     1.0000   1.0000   1.0000   1.0000   1.0000   1.0000   1.0000   1.0000
     1.0000   1.0000   1.0000   1.0000   1.0000   1.0000   1.0000   1.0000
     1.0000   1.0000   1.0000   1.0000   1.0000   1.0000   1.0000   1.0000
     1.0000   1.0000   1.0000   1.0000   1.0000   1.0000   1.0000   1.0000
     1.0000   1.0000   1.0000   1.0000   1.0000   1.0000   1.0000   1.0000
     1.0000   1.0000   1.0000   1.0000   1.0000   1.0000   1.0000   1.0000
     1.0000   1.0000   1.0000   1.0000   1.0000   1.0000   1.0000   1.0000
     1.0000   1.0000   1.0000   1.0000   1.0000   1.0000   1.0000   1.0000
     1.0000   1.0000   1.0000   1.0000   1.0000   1.0000   1.0000   1.0000
     1.0000   1.0000   1.0000   1.0000   1.0000   1.0000   1.0000   1.0000
     1.0000   1.0000   1.0000   1.0000   1.0000   1.0000   1.0000   1.0000
     1.0000   1.0000   1.0000   1.0000   1.0000   1.0000   1.0000   1.0000
     1.0000   1.0000   1.0000   1.0000   1.0000   1.0000   1.0000   1.0000
     1.0000   1.0000   1.0000   1.0000   1.0000   1.0000   1.0000   1.0000
     1.0000   1.0000   1.0000   1.0000   1.0000   1.0000   1.0000   1.0000
     1.0000   1.0000   1.0000   1.0000   1.0000   1.0000   1.0000   1.0000
     1.0000   1.0000   1.0000   1.0000   1.0000   1.0000   1.0000   1.0000
     1.0000   1.0000   1.0000   1.0000   0.9998   0.0002   0.0001   0.0000
     0.0000   0.0000   0.0000   0.0000   0.0000   0.0000   0.0000   0.0000
     0.0000   0.0000   0.0000   0.0000   0.0000   0.0000   0.0000   0.0000
     0.0000   0.0000   0.0000   0.0000   0.0000   0.0000   0.0000   0.0000
     0.0000   0.0000   0.0000   0.0000   0.0000   0.0000   0.0000   0.0000
     0.0000   0.0000   0.0000   0.0000   0.0000   0.0000

          k = 0.3333 0.5774 0.0000 (126429 PWs)   bands (ev):

   -60.3621 -60.3576 -60.3562 -60.3442 -60.3386 -60.3378 -60.3316 -60.3094
   -60.3091 -60.3075 -60.3007 -60.3006 -60.2959 -60.2913 -60.2756 -60.2754
   -34.6410 -34.6289 -34.6168 -34.6038 -34.5970 -34.5932 -34.5825 -34.5618
   -34.5565 -34.5249 -34.5222 -34.5036 -34.4712 -34.4682 -34.4588 -34.4565
   -34.4558 -34.4411 -34.4325 -34.4280 -34.4262 -34.4244 -34.4230 -34.4218
   -34.4073 -34.4038 -34.3978 -34.3918 -34.3914 -34.3875 -34.3875 -34.3829
   -34.3777 -34.3760 -34.3719 -34.3639 -34.3614 -34.3590 -34.3578 -34.3559
   -34.3550 -34.3438 -34.3320 -34.3239 -34.3068 -34.2950 -34.2249 -34.2174
   -13.2024 -13.1915 -13.1275 -12.4789 -12.4739 -12.3885 -12.0804 -12.0575
   -12.0513 -11.9921 -11.9860 -11.9627 -11.9545 -11.9528 -11.8341 -11.7854
   -11.7760 -11.7224 -11.6013 -11.5938 -11.5651 -11.5635 -11.5618 -11.5575
   -11.5533 -11.5371 -11.4689 -11.3986 -11.3940 -11.3909 -11.3218  -4.8515
    -4.7966  -4.7942  -4.7831  -4.7789  -4.7649  -4.7576  -4.7565  -4.6888
    -4.6853  -4.6741  -4.6081  -4.5952  -4.4886  -4.4384  -4.3671  -4.3161
    -4.2643  -4.2592  -3.9483  -3.9327  -3.8701  -3.8524  -3.8512  -3.7573
    -3.6948  -3.4440  -3.3693  -3.3666  -3.3642  -3.3526  -3.3266  -3.3020
    -3.2945  -3.2862  -3.2829  -3.2424  -3.1787  -3.1785  -3.0433  -3.0209
    -2.9563  -2.8151  -2.7350  -2.6342  -2.6218  -2.6005  -2.5905  -2.5783
    -2.5714  -2.5590  -2.5358  -2.5174  -2.5171  -2.5133  -2.4546  -2.3832
    -2.1671  -2.1640  -2.0517  -2.0196  -2.0150  -1.7967  -1.7756  -1.7447
    -1.7368  -1.6822  -1.5937  -1.5385  -1.5056  -1.4940  -1.4767  -1.4219
    -1.3353  -1.3059  -1.2665  -1.2214  -1.1816  -1.0800  -1.0775  -1.0699
    -1.0633  -1.0553  -1.0524  -1.0513  -1.0400  -1.0253  -0.7704  -0.6608
    -0.5581  -0.4856  -0.4496  -0.4057  -0.2805  -0.2429  -0.2428  -0.2217
    -0.2132  -0.2049  -0.1809  -0.1638  -0.1220   0.1645   0.1734   0.2504
     0.3377   0.3818   0.4254   0.5133   0.5495   1.7230   1.7940   2.2159
     2.4956   2.5752   2.5822   2.6386   2.6544   2.6597   2.6992   2.7272
     2.7417   2.7900   2.7940   2.8164   2.9575   2.9648   2.9909   2.9971
     3.0395   3.0449   3.0470   3.0636   3.0679   3.0704   3.0779   3.1105
     3.1350   3.1468   3.1834   3.2122   3.2502   3.2923   3.3723   3.5499
     3.5564   3.6596   3.6775   3.6842   3.7696   3.8107

     occupation numbers 
     1.0000   1.0000   1.0000   1.0000   1.0000   1.0000   1.0000   1.0000
     1.0000   1.0000   1.0000   1.0000   1.0000   1.0000   1.0000   1.0000
     1.0000   1.0000   1.0000   1.0000   1.0000   1.0000   1.0000   1.0000
     1.0000   1.0000   1.0000   1.0000   1.0000   1.0000   1.0000   1.0000
     1.0000   1.0000   1.0000   1.0000   1.0000   1.0000   1.0000   1.0000
     1.0000   1.0000   1.0000   1.0000   1.0000   1.0000   1.0000   1.0000
     1.0000   1.0000   1.0000   1.0000   1.0000   1.0000   1.0000   1.0000
     1.0000   1.0000   1.0000   1.0000   1.0000   1.0000   1.0000   1.0000
     1.0000   1.0000   1.0000   1.0000   1.0000   1.0000   1.0000   1.0000
     1.0000   1.0000   1.0000   1.0000   1.0000   1.0000   1.0000   1.0000
     1.0000   1.0000   1.0000   1.0000   1.0000   1.0000   1.0000   1.0000
     1.0000   1.0000   1.0000   1.0000   1.0000   1.0000   1.0000   1.0000
     1.0000   1.0000   1.0000   1.0000   1.0000   1.0000   1.0000   1.0000
     1.0000   1.0000   1.0000   1.0000   1.0000   1.0000   1.0000   1.0000
     1.0000   1.0000   1.0000   1.0000   1.0000   1.0000   1.0000   1.0000
     1.0000   1.0000   1.0000   1.0000   1.0000   1.0000   1.0000   1.0000
     1.0000   1.0000   1.0000   1.0000   1.0000   1.0000   1.0000   1.0000
     1.0000   1.0000   1.0000   1.0000   1.0000   1.0000   1.0000   1.0000
     1.0000   1.0000   1.0000   1.0000   1.0000   1.0000   1.0000   1.0000
     1.0000   1.0000   1.0000   1.0000   1.0000   1.0000   1.0000   1.0000
     1.0000   1.0000   1.0000   1.0000   1.0000   1.0000   1.0000   1.0000
     1.0000   1.0000   1.0000   1.0000   1.0000   1.0000   1.0000   1.0000
     1.0000   1.0000   1.0000   1.0000   1.0000   1.0000   1.0000   1.0000
     1.0000   1.0000   1.0000   1.0000   1.0000   1.0000   1.0000   1.0000
     1.0000   1.0000   1.0000   1.0000   1.0000   1.0000   1.0000   1.0000
     1.0000   1.0000   1.0000   0.9999   0.9999   0.0003   0.0001   0.0000
     0.0000   0.0000   0.0000   0.0000   0.0000   0.0000   0.0000   0.0000
     0.0000   0.0000   0.0000   0.0000   0.0000   0.0000   0.0000   0.0000
     0.0000   0.0000   0.0000   0.0000   0.0000   0.0000   0.0000   0.0000
     0.0000   0.0000   0.0000   0.0000   0.0000   0.0000   0.0000   0.0000
     0.0000   0.0000   0.0000   0.0000   0.0000   0.0000

     the Fermi energy is     1.1663 ev

!    total energy              =   -2979.42712506 Ry
     estimated scf accuracy    <          5.7E-11 Ry
     smearing contrib. (-TS)   =      -0.00007124 Ry
     internal energy E=F+TS    =   -2979.42705382 Ry

     The total energy is F=E-TS. E is the sum of the following terms:
     one-electron contribution =  -11135.40274280 Ry
     hartree contribution      =    5595.35212579 Ry
     xc contribution           =    -571.48065528 Ry
     ewald contribution        =    3132.10421846 Ry

     total magnetization       =    -0.00 Bohr mag/cell
     absolute magnetization    =     0.00 Bohr mag/cell

     convergence has been achieved in  26 iterations

     negative rho (up, down):  1.433E-03 1.433E-03

     Forces acting on atoms (cartesian axes, Ry/au):

     atom    1 type  1   force =    -0.00007991   -0.00008264    0.00014003
     atom    2 type  1   force =    -0.00011152   -0.00002788    0.00014003
     atom    3 type  1   force =     0.00000000    0.00002145   -0.00001091
     atom    4 type  1   force =     0.00001858   -0.00001073   -0.00001091
     atom    5 type  1   force =     0.00000000    0.00009936    0.00006464
     atom    6 type  1   force =     0.00016195    0.00009350   -0.00060064
     atom    7 type  1   force =     0.00008605   -0.00004968    0.00006464
     atom    8 type  1   force =    -0.00001858   -0.00001073   -0.00001091
     atom    9 type  1   force =     0.00007991   -0.00008264    0.00014003
     atom   10 type  1   force =    -0.00016195    0.00009350   -0.00060064
     atom   11 type  1   force =     0.00000000   -0.00018700   -0.00060064
     atom   12 type  1   force =    -0.00003161    0.00011052    0.00014003
     atom   13 type  1   force =     0.00000000    0.00000000    0.00058610
     atom   14 type  1   force =     0.00011152   -0.00002788    0.00014003
     atom   15 type  1   force =    -0.00008605   -0.00004968    0.00006464
     atom   16 type  1   force =     0.00003161    0.00011052    0.00014003
     atom   17 type  2   force =     0.00037943    0.00021906    0.00036594
     atom   18 type  2   force =     0.00000000   -0.00009077    0.00016694
     atom   19 type  2   force =    -0.00046462   -0.00026825   -0.00009099
     atom   20 type  2   force =    -0.00007861    0.00004539    0.00016694
     atom   21 type  2   force =    -0.00015385   -0.00030563   -0.00019948
     atom   22 type  2   force =    -0.00034161    0.00001958   -0.00019948
     atom   23 type  2   force =     0.00046462   -0.00026825   -0.00009099
     atom   24 type  2   force =     0.00000000    0.00053649   -0.00009099
     atom   25 type  2   force =     0.00015385   -0.00030563   -0.00019948
     atom   26 type  2   force =    -0.00018776    0.00028605   -0.00019948
     atom   27 type  2   force =     0.00007861    0.00004539    0.00016694
     atom   28 type  2   force =    -0.00037943    0.00021906    0.00036594
     atom   29 type  2   force =     0.00034161    0.00001958   -0.00019948
     atom   30 type  2   force =     0.00018776    0.00028605   -0.00019948
     atom   31 type  2   force =    -0.00000000   -0.00043812    0.00036594
     atom   32 type  2   force =     0.00015476    0.00008935    0.00038421
     atom   33 type  2   force =     0.00000000   -0.00013848    0.00055297
     atom   34 type  2   force =     0.00010294    0.00005943   -0.00021911
     atom   35 type  2   force =    -0.00011992    0.00006924    0.00055297
     atom   36 type  2   force =     0.00005920   -0.00013268   -0.00019684
     atom   37 type  2   force =    -0.00008530    0.00011761   -0.00019684
     atom   38 type  2   force =    -0.00010294    0.00005943   -0.00021911
     atom   39 type  2   force =     0.00000000   -0.00011886   -0.00021911
     atom   40 type  2   force =    -0.00005920   -0.00013268   -0.00019684
     atom   41 type  2   force =    -0.00000000   -0.00000000   -0.00088753
     atom   42 type  2   force =    -0.00014450    0.00001507   -0.00019684
     atom   43 type  2   force =     0.00011992    0.00006924    0.00055297
     atom   44 type  2   force =    -0.00015476    0.00008935    0.00038421
     atom   45 type  2   force =     0.00008530    0.00011761   -0.00019684
     atom   46 type  2   force =     0.00014450    0.00001507   -0.00019684
     atom   47 type  2   force =     0.00000000   -0.00017870    0.00038421
     The non-local contrib.  to forces
     atom    1 type  1   force =    -0.00101056    0.00605636    0.00069425
     atom    2 type  1   force =     0.00473968   -0.00390335    0.00069425
     atom    3 type  1   force =     0.00000000    0.00092054   -0.00126650
     atom    4 type  1   force =     0.00079721   -0.00046027   -0.00126650
     atom    5 type  1   force =     0.00000000   -0.00421145    0.00344326
     atom    6 type  1   force =     0.01257443    0.00725985   -0.03038917
     atom    7 type  1   force =    -0.00364722    0.00210573    0.00344326
     atom    8 type  1   force =    -0.00079721   -0.00046027   -0.00126650
     atom    9 type  1   force =     0.00101056    0.00605636    0.00069425
     atom   10 type  1   force =    -0.01257443    0.00725985   -0.03038917
     atom   11 type  1   force =     0.00000000   -0.01451970   -0.03038917
     atom   12 type  1   force =     0.00575024   -0.00215301    0.00069425
     atom   13 type  1   force =     0.00000000    0.00000000   -0.00230274
     atom   14 type  1   force =    -0.00473968   -0.00390335    0.00069425
     atom   15 type  1   force =     0.00364722    0.00210573    0.00344326
     atom   16 type  1   force =    -0.00575024   -0.00215301    0.00069425
     atom   17 type  2   force =     0.00097785    0.00056456   -0.28353641
     atom   18 type  2   force =     0.00000000   -0.00295202   -0.28094370
     atom   19 type  2   force =    -0.00082892   -0.00047858   -0.28381644
     atom   20 type  2   force =    -0.00255653    0.00147601   -0.28094370
     atom   21 type  2   force =    -0.01015234   -0.00865433   -0.26791647
     atom   22 type  2   force =    -0.01257104   -0.00446502   -0.26791647
     atom   23 type  2   force =     0.00082892   -0.00047858   -0.28381644
     atom   24 type  2   force =     0.00000000    0.00095716   -0.28381644
     atom   25 type  2   force =     0.01015234   -0.00865433   -0.26791647
     atom   26 type  2   force =    -0.00241870    0.01311935   -0.26791647
     atom   27 type  2   force =     0.00255653    0.00147601   -0.28094370
     atom   28 type  2   force =    -0.00097785    0.00056456   -0.28353641
     atom   29 type  2   force =     0.01257104   -0.00446502   -0.26791647
     atom   30 type  2   force =     0.00241870    0.01311935   -0.26791647
     atom   31 type  2   force =     0.00000000   -0.00112913   -0.28353641
     atom   32 type  2   force =     0.00120420    0.00069524    0.28051507
     atom   33 type  2   force =     0.00000000    0.00304394    0.28190625
     atom   34 type  2   force =     0.00039288    0.00022683    0.28002765
     atom   35 type  2   force =     0.00263613   -0.00152197    0.28190625
     atom   36 type  2   force =     0.00415257    0.00195236    0.28089550
     atom   37 type  2   force =     0.00376708    0.00262005    0.28089550
     atom   38 type  2   force =    -0.00039288    0.00022683    0.28002765
     atom   39 type  2   force =    -0.00000000   -0.00045365    0.28002765
     atom   40 type  2   force =    -0.00415257    0.00195236    0.28089550
     atom   41 type  2   force =     0.00000000   -0.00000000    0.28111272
     atom   42 type  2   force =    -0.00038549   -0.00457241    0.28089550
     atom   43 type  2   force =    -0.00263613   -0.00152197    0.28190625
     atom   44 type  2   force =    -0.00120420    0.00069524    0.28051507
     atom   45 type  2   force =    -0.00376708    0.00262005    0.28089550
     atom   46 type  2   force =     0.00038549   -0.00457241    0.28089550
     atom   47 type  2   force =     0.00000000   -0.00139049    0.28051507
     The ionic contribution  to forces
     atom    1 type  1   force =     0.70387953    0.32629238    1.56828464
     atom    2 type  1   force =     0.63449746    0.44646549    1.56828133
     atom    3 type  1   force =     0.00003138    0.11662052    0.68900691
     atom    4 type  1   force =     0.10101377   -0.05832175    0.68900808
     atom    5 type  1   force =     0.00001842    0.58914633    0.45081050
     atom    6 type  1   force =     3.50504296    2.02364369    3.45305965
     atom    7 type  1   force =     0.51016706   -0.29454988    0.45080836
     atom    8 type  1   force =    -0.10098347   -0.05833394    0.68901034
     atom    9 type  1   force =    -0.70388497    0.32630781    1.56828091
     atom   10 type  1   force =    -3.50497716    2.02362837    3.45305440
     atom   11 type  1   force =     0.00001257   -4.04728344    3.45306289
     atom   12 type  1   force =    -0.06940626   -0.77272046    1.56827858
     atom   13 type  1   force =    -0.00001790    0.00001900    1.31201149
     atom   14 type  1   force =    -0.63455212    0.44645027    1.56828019
     atom   15 type  1   force =    -0.51021750   -0.29461787    0.45081351
     atom   16 type  1   force =     0.06938072   -0.77273557    1.56827541
     atom   17 type  2   force =     0.31238881    0.18035306   32.60475174
     atom   18 type  2   force =     0.00000342    0.06463582   32.48281491
     atom   19 type  2   force =    -0.26074617   -0.15054675   32.21004500
     atom   20 type  2   force =     0.05596865   -0.03231161   32.48283349
     atom   21 type  2   force =     0.58108045    1.26122367   32.42359777
     atom   22 type  2   force =     1.38279097   -0.12737432   32.42359066
     atom   23 type  2   force =     0.26074855   -0.15054867   32.21002874
     atom   24 type  2   force =     0.00000269    0.30108068   32.21004372
     atom   25 type  2   force =    -0.58107287    1.26124279   32.42358906
     atom   26 type  2   force =     0.80170850   -1.13384751   32.42359067
     atom   27 type  2   force =    -0.05597287   -0.03231889   32.48281311
     atom   28 type  2   force =    -0.31239071    0.18035618   32.60474278
     atom   29 type  2   force =    -1.38280414   -0.12738702   32.42357645
     atom   30 type  2   force =    -0.80170792   -1.13385199   32.42359311
     atom   31 type  2   force =    -0.00000087   -0.36070942   32.60475872
     atom   32 type  2   force =    -0.04463068   -0.02577022  -31.90989897
     atom   33 type  2   force =     0.00000312   -0.02573289  -31.91602245
     atom   34 type  2   force =    -0.00084013   -0.00049245  -31.92051995
     atom   35 type  2   force =    -0.02229331    0.01286843  -31.91604604
     atom   36 type  2   force =    -0.07669077   -0.16384246  -31.98188019
     atom   37 type  2   force =    -0.18024025    0.01551232  -31.98187264
     atom   38 type  2   force =     0.00084741   -0.00049458  -31.92050429
     atom   39 type  2   force =     0.00000320    0.00097157  -31.92051858
     atom   40 type  2   force =     0.07669652   -0.16381939  -31.98187424
     atom   41 type  2   force =     0.00001391   -0.00000267  -31.80413700
     atom   42 type  2   force =    -0.10355412    0.14833405  -31.98187297
     atom   43 type  2   force =     0.02228928    0.01286523  -31.91602062
     atom   44 type  2   force =     0.04462660   -0.02576758  -31.90988506
     atom   45 type  2   force =     0.18022040    0.01549796  -31.98186165
     atom   46 type  2   force =     0.10354926    0.14832952  -31.98187617
     atom   47 type  2   force =    -0.00000142    0.05153619  -31.90990629
     The local contribution  to forces
     atom    1 type  1   force =    -0.70333493   -0.33213722   -1.56893118
     atom    2 type  1   force =    -0.63941920   -0.44298613   -1.56893080
     atom    3 type  1   force =     0.00013502   -0.11763094   -0.68774146
     atom    4 type  1   force =    -0.10175591    0.05866447   -0.68774075
     atom    5 type  1   force =     0.00006548   -0.58473353   -0.45382864
     atom    6 type  1   force =    -3.51721742   -2.03059968   -3.42637073
     atom    7 type  1   force =    -0.50649113    0.29236339   -0.45382893
     atom    8 type  1   force =     0.10188744    0.05866464   -0.68774115
     atom    9 type  1   force =     0.70332962   -0.33227449   -1.56893046
     atom   10 type  1   force =     3.51735226   -2.03073825   -3.42637732
     atom   11 type  1   force =    -0.00007002    4.06119192   -3.42636417
     atom   12 type  1   force =     0.06384587    0.77511448   -1.56893076
     atom   13 type  1   force =    -0.00014152    0.00004730   -1.30925902
     atom   14 type  1   force =     0.63927490   -0.44298605   -1.56892988
     atom   15 type  1   force =     0.50634646    0.29208702   -0.45382678
     atom   16 type  1   force =    -0.06398967    0.77497535   -1.56893052
     atom   17 type  2   force =    -0.31292999   -0.18068062  -32.33544434
     atom   18 type  2   force =    -0.00000010   -0.06196362  -32.21617382
     atom   19 type  2   force =     0.26102188    0.15070126  -31.94094604
     atom   20 type  2   force =    -0.05366698    0.03098733  -32.21619036
     atom   21 type  2   force =    -0.57173329   -1.25339170  -32.16958384
     atom   22 type  2   force =    -1.37133063    0.13156136  -32.16956785
     atom   23 type  2   force =    -0.26102934    0.15070185  -31.94094592
     atom   24 type  2   force =    -0.00000005   -0.30141216  -31.94094575
     atom   25 type  2   force =     0.57173240   -1.25336691  -32.16959940
     atom   26 type  2   force =    -0.79959308    1.12182095  -32.16956766
     atom   27 type  2   force =     0.05366015    0.03098066  -32.21617381
     atom   28 type  2   force =     0.31292970   -0.18067278  -32.33544437
     atom   29 type  2   force =     1.37131475    0.13155440  -32.16959962
     atom   30 type  2   force =     0.79960103    1.12182099  -32.16958381
     atom   31 type  2   force =     0.00000342    0.36134458  -32.33544460
     atom   32 type  2   force =     0.04363548    0.02518299   31.64416578
     atom   33 type  2   force =     0.00000023    0.02270157   31.64916867
     atom   34 type  2   force =     0.00058086    0.00033108   31.65468281
     atom   35 type  2   force =     0.01965449   -0.01135058   31.64920178
     atom   36 type  2   force =     0.07279002    0.16178886   31.71521404
     atom   37 type  2   force =     0.17651035   -0.01785529   31.71519755
     atom   38 type  2   force =    -0.00058038    0.00033107   31.65468278
     atom   39 type  2   force =     0.00000023   -0.00066934   31.65468262
     atom   40 type  2   force =    -0.07278919    0.16181063   31.71523089
     atom   41 type  2   force =     0.00001092   -0.00000639   31.53639166
     atom   42 type  2   force =     0.10371689   -0.14393947   31.71519704
     atom   43 type  2   force =    -0.01966137   -0.01135062   31.64916816
     atom   44 type  2   force =    -0.04363491    0.02519032   31.64414894
     atom   45 type  2   force =    -0.17652429   -0.01786295   31.71523096
     atom   46 type  2   force =    -0.10371644   -0.14393948   31.71521370
     atom   47 type  2   force =     0.00000396   -0.05038661   31.64416549
     The core correction contribution to forces
     atom    1 type  1   force =     0.00030244   -0.00023379    0.00009747
     atom    2 type  1   force =    -0.00005068    0.00037960    0.00009748
     atom    3 type  1   force =    -0.00000167    0.00002532   -0.00001059
     atom    4 type  1   force =     0.00001973   -0.00000976   -0.00001058
     atom    5 type  1   force =    -0.00000085   -0.00012651   -0.00036001
     atom    6 type  1   force =    -0.00023415   -0.00013505    0.00310161
     atom    7 type  1   force =    -0.00010922    0.00006455   -0.00036006
     atom    8 type  1   force =    -0.00002144   -0.00000972   -0.00001057
     atom    9 type  1   force =    -0.00030256   -0.00023215    0.00009743
     atom   10 type  1   force =     0.00023236   -0.00013344    0.00310154
     atom   11 type  1   force =     0.00000071    0.00027264    0.00310155
     atom   12 type  1   force =    -0.00035238   -0.00014327    0.00009737
     atom   13 type  1   force =     0.00000152    0.00000024    0.00013754
     atom   14 type  1   force =     0.00005215    0.00037962    0.00009743
     atom   15 type  1   force =     0.00011069    0.00006771   -0.00036010
     atom   16 type  1   force =     0.00035387   -0.00014171    0.00009738
     atom   17 type  2   force =    -0.00005285   -0.00002843    0.01459525
     atom   18 type  2   force =     0.00000008    0.00019446    0.01446889
     atom   19 type  2   force =     0.00008600    0.00005056    0.01463253
     atom   20 type  2   force =     0.00016824   -0.00009665    0.01446980
     atom   21 type  2   force =     0.00064391    0.00050064    0.01371215
     atom   22 type  2   force =     0.00075446    0.00030862    0.01371126
     atom   23 type  2   force =    -0.00008497    0.00005057    0.01463252
     atom   24 type  2   force =     0.00000008   -0.00009737    0.01463251
     atom   25 type  2   force =    -0.00064374    0.00049808    0.01371308
     atom   26 type  2   force =     0.00011021   -0.00080558    0.01371126
     atom   27 type  2   force =    -0.00016725   -0.00009576    0.01446888
     atom   28 type  2   force =     0.00005302   -0.00002928    0.01459524
     atom   29 type  2   force =    -0.00075259    0.00030947    0.01371310
     atom   30 type  2   force =    -0.00011089   -0.00080559    0.01371217
     atom   31 type  2   force =    -0.00000035    0.00006138    0.01459525
     atom   32 type  2   force =    -0.00005336   -0.00002870   -0.01439495
     atom   33 type  2   force =     0.00000010   -0.00014620   -0.01450318
     atom   34 type  2   force =    -0.00002393   -0.00001240   -0.01441659
     atom   35 type  2   force =    -0.00012673    0.00007460   -0.01450501
     atom   36 type  2   force =    -0.00019930   -0.00004383   -0.01443504
     atom   37 type  2   force =    -0.00013869   -0.00014939   -0.01443412
     atom   38 type  2   force =     0.00002414   -0.00001241   -0.01441659
     atom   39 type  2   force =     0.00000010    0.00002867   -0.01441658
     atom   40 type  2   force =     0.00019951   -0.00004636   -0.01443596
     atom   41 type  2   force =    -0.00000117    0.00000181   -0.01425883
     atom   42 type  2   force =     0.00006110    0.00019697   -0.01443414
     atom   43 type  2   force =     0.00012777    0.00007461   -0.01450319
     atom   44 type  2   force =     0.00005355   -0.00002953   -0.01439404
     atom   45 type  2   force =     0.00014058   -0.00014856   -0.01443597
     atom   46 type  2   force =    -0.00006092    0.00019697   -0.01443506
     atom   47 type  2   force =    -0.00000033    0.00006284   -0.01439497
     The Hubbard contrib.    to forces
     atom    1 type  1   force =     0.00000000    0.00000000    0.00000000
     atom    2 type  1   force =     0.00000000    0.00000000    0.00000000
     atom    3 type  1   force =     0.00000000    0.00000000    0.00000000
     atom    4 type  1   force =     0.00000000    0.00000000    0.00000000
     atom    5 type  1   force =     0.00000000    0.00000000    0.00000000
     atom    6 type  1   force =     0.00000000    0.00000000    0.00000000
     atom    7 type  1   force =     0.00000000    0.00000000    0.00000000
     atom    8 type  1   force =     0.00000000    0.00000000    0.00000000
     atom    9 type  1   force =     0.00000000    0.00000000    0.00000000
     atom   10 type  1   force =     0.00000000    0.00000000    0.00000000
     atom   11 type  1   force =     0.00000000    0.00000000    0.00000000
     atom   12 type  1   force =     0.00000000    0.00000000    0.00000000
     atom   13 type  1   force =     0.00000000    0.00000000    0.00000000
     atom   14 type  1   force =     0.00000000    0.00000000    0.00000000
     atom   15 type  1   force =     0.00000000    0.00000000    0.00000000
     atom   16 type  1   force =     0.00000000    0.00000000    0.00000000
     atom   17 type  2   force =     0.00000000    0.00000000    0.00000000
     atom   18 type  2   force =     0.00000000    0.00000000    0.00000000
     atom   19 type  2   force =     0.00000000    0.00000000    0.00000000
     atom   20 type  2   force =     0.00000000    0.00000000    0.00000000
     atom   21 type  2   force =     0.00000000    0.00000000    0.00000000
     atom   22 type  2   force =     0.00000000    0.00000000    0.00000000
     atom   23 type  2   force =     0.00000000    0.00000000    0.00000000
     atom   24 type  2   force =     0.00000000    0.00000000    0.00000000
     atom   25 type  2   force =     0.00000000    0.00000000    0.00000000
     atom   26 type  2   force =     0.00000000    0.00000000    0.00000000
     atom   27 type  2   force =     0.00000000    0.00000000    0.00000000
     atom   28 type  2   force =     0.00000000    0.00000000    0.00000000
     atom   29 type  2   force =     0.00000000    0.00000000    0.00000000
     atom   30 type  2   force =     0.00000000    0.00000000    0.00000000
     atom   31 type  2   force =     0.00000000    0.00000000    0.00000000
     atom   32 type  2   force =     0.00000000    0.00000000    0.00000000
     atom   33 type  2   force =     0.00000000    0.00000000    0.00000000
     atom   34 type  2   force =     0.00000000    0.00000000    0.00000000
     atom   35 type  2   force =     0.00000000    0.00000000    0.00000000
     atom   36 type  2   force =     0.00000000    0.00000000    0.00000000
     atom   37 type  2   force =     0.00000000    0.00000000    0.00000000
     atom   38 type  2   force =     0.00000000    0.00000000    0.00000000
     atom   39 type  2   force =     0.00000000    0.00000000    0.00000000
     atom   40 type  2   force =     0.00000000    0.00000000    0.00000000
     atom   41 type  2   force =     0.00000000    0.00000000    0.00000000
     atom   42 type  2   force =     0.00000000    0.00000000    0.00000000
     atom   43 type  2   force =     0.00000000    0.00000000    0.00000000
     atom   44 type  2   force =     0.00000000    0.00000000    0.00000000
     atom   45 type  2   force =     0.00000000    0.00000000    0.00000000
     atom   46 type  2   force =     0.00000000    0.00000000    0.00000000
     atom   47 type  2   force =     0.00000000    0.00000000    0.00000000
     The SCF correction term to forces
     atom    1 type  1   force =     0.00000320    0.00000110   -0.00000209
     atom    2 type  1   force =     0.00000255    0.00000222   -0.00000209
     atom    3 type  1   force =    -0.00000000    0.00000158   -0.00000202
     atom    4 type  1   force =     0.00000137   -0.00000079   -0.00000202
     atom    5 type  1   force =    -0.00000000    0.00000273   -0.00000212
     atom    6 type  1   force =     0.00000425    0.00000245   -0.00000215
     atom    7 type  1   force =     0.00000236   -0.00000136   -0.00000212
     atom    8 type  1   force =    -0.00000136   -0.00000079   -0.00000202
     atom    9 type  1   force =    -0.00000320    0.00000110   -0.00000209
     atom   10 type  1   force =    -0.00000425    0.00000245   -0.00000215
     atom   11 type  1   force =    -0.00000000   -0.00000491   -0.00000216
     atom   12 type  1   force =    -0.00000065   -0.00000332   -0.00000209
     atom   13 type  1   force =    -0.00000000    0.00000000   -0.00000203
     atom   14 type  1   force =    -0.00000255    0.00000222   -0.00000209
     atom   15 type  1   force =    -0.00000236   -0.00000137   -0.00000212
     atom   16 type  1   force =     0.00000065   -0.00000332   -0.00000209
     atom   17 type  2   force =     0.00000047    0.00000027   -0.00000040
     atom   18 type  2   force =    -0.00000000    0.00000097   -0.00000060
     atom   19 type  2   force =    -0.00000036   -0.00000021   -0.00000119
     atom   20 type  2   force =     0.00000084   -0.00000048   -0.00000060
     atom   21 type  2   force =     0.00000146    0.00000153   -0.00000198
     atom   22 type  2   force =     0.00000206    0.00000050   -0.00000198
     atom   23 type  2   force =     0.00000036   -0.00000021   -0.00000119
     atom   24 type  2   force =    -0.00000000    0.00000042   -0.00000119
     atom   25 type  2   force =    -0.00000146    0.00000153   -0.00000198
     atom   26 type  2   force =     0.00000060   -0.00000203   -0.00000198
     atom   27 type  2   force =    -0.00000084   -0.00000048   -0.00000060
     atom   28 type  2   force =    -0.00000047    0.00000027   -0.00000040
     atom   29 type  2   force =    -0.00000206    0.00000050   -0.00000198
     atom   30 type  2   force =    -0.00000060   -0.00000203   -0.00000198
     atom   31 type  2   force =    -0.00000000   -0.00000054   -0.00000040
     atom   32 type  2   force =     0.00000049    0.00000028   -0.00000038
     atom   33 type  2   force =    -0.00000000    0.00000088   -0.00000019
     atom   34 type  2   force =    -0.00000035   -0.00000020    0.00000049
     atom   35 type  2   force =     0.00000076   -0.00000044   -0.00000019
     atom   36 type  2   force =     0.00000157    0.00000170    0.00000079
     atom   37 type  2   force =     0.00000225    0.00000051    0.00000079
     atom   38 type  2   force =     0.00000035   -0.00000020    0.00000049
     atom   39 type  2   force =     0.00000000    0.00000040    0.00000049
     atom   40 type  2   force =    -0.00000157    0.00000170    0.00000079
     atom   41 type  2   force =     0.00000000    0.00000000    0.00000305
     atom   42 type  2   force =     0.00000069   -0.00000220    0.00000079
     atom   43 type  2   force =    -0.00000076   -0.00000044   -0.00000019
     atom   44 type  2   force =    -0.00000049    0.00000028   -0.00000038
     atom   45 type  2   force =    -0.00000225    0.00000051    0.00000079
     atom   46 type  2   force =    -0.00000069   -0.00000220    0.00000079
     atom   47 type  2   force =     0.00000000   -0.00000056   -0.00000038

     Total force =     0.002745     Total SCF correction =     0.000019
     Energy error            =      2.0E-05 Ry
     Gradient error          =      8.9E-04 Ry/Bohr

     bfgs converged in   6 scf cycles and   5 bfgs steps
     (criteria: energy <  1.0E-04 Ry, force <  1.0E-03 Ry/Bohr)

     End of BFGS Geometry Optimization

     Final energy             =   -2979.4271250619 Ry

     File /home/nihal/Desktop/Otptf/Trial_4.bfgs deleted, as requested
Begin final coordinates

ATOMIC_POSITIONS (angstrom)
Mo               1.6010626848        0.9306576159       11.1771792648
Mo               0.0113477601        3.6841256652       11.1771792648
Mo              -1.5951590000        6.4411101514       11.1666756593
Mo              -3.1952038503        9.2124704243       11.1666756593
Mo               4.7854730000        0.9539670518       11.1446041344
Mo               3.2314652176        3.7076160893       11.1117846737
Mo               1.6237396151        6.4302519742       11.1446041344
Mo               0.0048868503        9.2124704243       11.1666756593
Mo               7.9698843152        0.9306586159       11.1771792648
Mo               6.3394807824        3.7076170893       11.1117846737
Mo               4.7854740000        6.3992388214       11.1117846737
Mo               3.1957590751        9.1996877189       11.1771792648
Mo              11.1661060000        0.9209640000       11.1863274855
Mo               9.5596002399        3.6841256652       11.1771792648
Mo               7.9472083849        6.4302539742       11.1446041344
Mo               6.3751889249        9.1996887189       11.1771792648
S                0.0074699774        1.8462437934       12.7420657345
S               -1.5951580000        4.6090913502       12.7343575266
S               -3.2081725995        7.3574089100       12.7116630642
S               -4.7817773663       10.1284783249       12.7343585266
S                3.2336752532        1.9099382795       12.7058217968
S                1.6757345240        4.6083700751       12.7058207968
S                0.0178575995        7.3574089100       12.7116630642
S               -1.5951580000       10.1512331798       12.7116630642
S                6.3372717468        1.9099352795       12.7058227968
S                3.2275322709        7.2961646454       12.7058207968
S                1.5914623663       10.1284793249       12.7343575266
S                9.5634770226        1.8462427934       12.7420657345
S                7.8952144760        4.6083710751       12.7058227968
S                6.3434137291        7.2961646454       12.7058217968
S                4.7854730000       10.1219864130       12.7420657345
S               -0.0016945187        1.8409526692        9.6255227732
S               -1.5951580000        4.5944665314        9.6169626350
S               -3.1942994463        7.3654191562        9.6076290994
S               -4.7944428308       10.1357917342        9.6169606350
S                3.1747647443        1.8611965536        9.5844357505
S                1.6040676969        4.5817229407        9.5844367505
S                0.0039834463        7.3654191562        9.6076290994
S               -1.5951580000       10.1352126875        9.6076290994
S                6.3961822557        1.8611935536        9.5844347505
S                4.7854720000        4.6048250000        9.5500437409
S                3.2147769525        7.3715535057        9.5844367505
S                1.6041278308       10.1357917342        9.6169626350
S                9.5726415187        1.8409516692        9.6255237732
S                7.9668813031        4.5817239407        9.5844347505
S                6.3561700475        7.3715535057        9.5844357505
S                4.7854730000       10.1325696617        9.6255227732
End final coordinates



     Writing all to output data dir /home/nihal/Desktop/Otptf/Trial_4.save/ :
     XML data file, charge density, pseudopotentials, collected wavefunctions

     init_run     :     87.27s CPU     90.69s WALL (       1 calls)
     electrons    :  22564.68s CPU  23296.97s WALL (       7 calls)
     update_pot   :      5.02s CPU      5.42s WALL (       5 calls)
     forces       :    360.20s CPU    367.33s WALL (       7 calls)

     Called by init_run:
     wfcinit      :     82.33s CPU     84.85s WALL (       1 calls)
     wfcinit:atom :      0.31s CPU      0.67s WALL (      14 calls)
     wfcinit:wfcr :     78.57s CPU     80.41s WALL (      14 calls)
     potinit      :      2.16s CPU      2.37s WALL (       2 calls)
     hinit0       :      0.93s CPU      0.97s WALL (       1 calls)

     Called by electrons:
     c_bands      :  19230.25s CPU  19757.20s WALL (     107 calls)
     sum_band     :   3016.90s CPU   3144.42s WALL (     107 calls)
     v_of_rho     :     85.47s CPU     93.01s WALL (     108 calls)
     v_h          :      4.01s CPU      4.21s WALL (     108 calls)
     v_xc         :     86.76s CPU     94.69s WALL (     115 calls)
     newd         :    220.30s CPU    294.35s WALL (     108 calls)
     mix_rho      :     20.42s CPU     21.27s WALL (     107 calls)

     Called by c_bands:
     init_us_2    :    344.70s CPU    344.97s WALL (    3108 calls)
     cegterg      :  18650.16s CPU  19176.53s WALL (    1498 calls)

     Called by sum_band:
     sum_band:wei :      0.05s CPU      0.05s WALL (     107 calls)
     sum_band:loo :   2504.21s CPU   2554.11s WALL (     107 calls)
     sum_band:buf :     29.57s CPU     29.59s WALL (    1498 calls)
     sum_band:ini :    155.62s CPU    155.69s WALL (    1498 calls)
     sum_band:cal :   1108.70s CPU   1109.70s WALL (    1498 calls)
     sum_band:bec :      1.45s CPU      1.46s WALL (    1498 calls)
     addusdens    :    492.16s CPU    568.67s WALL (     107 calls)
                                        0.00s GPU  (     107 calls)
     addusd:skk   :      4.57s CPU     10.35s WALL (     214 calls)
                                        0.00s GPU  (     214 calls)

     Called by *egterg:
     cdiaghg      :    777.12s CPU    785.18s WALL (    5834 calls)
     cegterg:over :   3299.49s CPU   3301.49s WALL (    4504 calls)
     cegterg:upda :   1165.67s CPU   1224.52s WALL (    4504 calls)
     cegterg:last :    651.68s CPU    652.47s WALL (    1498 calls)
     cdiaghg:chol :     35.97s CPU     36.00s WALL (    5834 calls)
     cdiaghg:inve :      7.22s CPU      7.23s WALL (    5834 calls)
     cdiaghg:para :    194.50s CPU    200.59s WALL (   11668 calls)
     h_psi        :   9490.16s CPU   9813.88s WALL (    6016 calls)
     s_psi        :   1703.72s CPU   1704.20s WALL (    6016 calls)
     g_psi        :     32.65s CPU     32.68s WALL (    4504 calls)

     Called by h_psi:
     h_psi:calbec :   2736.86s CPU   2738.91s WALL (    6016 calls)
     vloc_psi     :   5011.77s CPU   5282.95s WALL (    6016 calls)
                                        0.00s GPU  (    6016 calls)
     add_vuspsi   :   1695.51s CPU   1695.71s WALL (    6016 calls)

     General routines
     calbec       :   4133.37s CPU   4136.62s WALL (    7906 calls)
     fft          :     68.90s CPU     74.06s WALL (    2806 calls)
     ffts         :      2.39s CPU      2.62s WALL (     430 calls)
     fftw         :   4347.48s CPU   4656.38s WALL ( 2151928 calls)
     interpolate  :      8.34s CPU      8.74s WALL (     216 calls)

     Parallel routines

     PWSCF        :      6h23m CPU      6h36m WALL


   This run was terminated on:   6:47:34   9Jul2026            

=------------------------------------------------------------------------------=
   JOB DONE.
=------------------------------------------------------------------------------=
