
     Program PWSCF v.7.5 starts on  9Jul2026 at  9:28:37 

     This program is part of the open-source Quantum ESPRESSO suite
     for quantum simulation of materials; please cite
         "P. Giannozzi et al., J. Phys.:Condens. Matter 21 395502 (2009);
         "P. Giannozzi et al., J. Phys.:Condens. Matter 29 465901 (2017);
         "P. Giannozzi et al., J. Chem. Phys. 152 154105 (2020);
          URL http://www.quantum-espresso.org", 
     in publications or presentations arising from this work. More details at
     http://www.quantum-espresso.org/quote

     Parallel version (MPI), running on     8 processors

     MPI processes distributed on     1 nodes
     27354 MiB available memory on the printing compute node when the environment starts

     Reading input from MoSt_1V_scf.in

     Current dimensions of program PWSCF are:
     Max number of different atomic species (ntypx) = 10
     Max number of k-points (npk) =  40000
     Max angular momentum in pseudopotentials (lmaxx) =  4
     Message from routine setup:
     using ibrav=0 with symmetry is DISCOURAGED, use correct ibrav instead

     R & G space division:  proc/nbgrp/npool/nimage =       8
     Subspace diagonalization in iterative solution of the eigenvalue problem:
     one sub-group per band group will be used
     scalapack distributed-memory algorithm (size of sub-group:  2*  2 procs)


     Parallelization info
     --------------------
     sticks:   dense  smooth     PW     G-vecs:    dense   smooth      PW
     Min        2503    1301    339               336908   126317   16843
     Max        2504    1302    340               336911   126322   16850
     Sum       20029   10411   2713              2695269  1010563  134763

     Using Slab Decomposition



     bravais-lattice index     =            0
     lattice parameter (alat)  =      24.1153  a.u.
     unit-cell volume          =   14275.9760 (a.u.)^3
     number of atoms/cell      =           47
     number of atomic types    =            2
     number of electrons       =       410.00
     number of Kohn-Sham states=          246
     kinetic-energy cutoff     =      65.0000  Ry
     charge density cutoff     =     500.0000  Ry
     scf convergence threshold =      1.0E-10
     mixing beta               =       0.3000
     number of iterations used =            8  plain     mixing
     Exchange-correlation=  SLA  PW   PBX  PBC
                           (   1   4   3   4   0   0   0)

     celldm(1)=  24.115292  celldm(2)=   0.000000  celldm(3)=   0.000000
     celldm(4)=   0.000000  celldm(5)=   0.000000  celldm(6)=   0.000000

     crystal axes: (cart. coord. in units of alat)
               a(1) = (   1.000000   0.000000   0.000000 )  
               a(2) = (  -0.500000   0.866025   0.000000 )  
               a(3) = (   0.000000   0.000000   1.175432 )  

     reciprocal axes: (cart. coord. in units 2 pi/alat)
               b(1) = (  1.000000  0.577350 -0.000000 )  
               b(2) = (  0.000000  1.154701  0.000000 )  
               b(3) = (  0.000000 -0.000000  0.850751 )  


     PseudoPot. # 1 for Mo read from file:
     /home/nihal/Desktop/pseudos/mo_pbe_v1.uspp.F.UPF
     MD5 check sum: 30c4dcd161f5d35cd49bb5239c51a633
     Pseudo is Ultrasoft + core correction, Zval = 14.0
     Generated by new atomic code, or converted to UPF format
     Using radial grid of  889 points,  6 beta functions with: 
                l(1) =   0
                l(2) =   0
                l(3) =   1
                l(4) =   1
                l(5) =   2
                l(6) =   2
     Q(r) pseudized with  6 coefficients,  rinner =    1.000   1.000   1.000
                                                       1.000   1.000

     PseudoPot. # 2 for S  read from file:
     /home/nihal/Desktop/pseudos/s_pbe_v1.4.uspp.F.UPF
     MD5 check sum: 88d86576ff6df21479756cfb9bdac1df
     Pseudo is Ultrasoft + core correction, Zval =  6.0
     Generated by new atomic code, or converted to UPF format
     Using radial grid of  907 points,  6 beta functions with: 
                l(1) =   0
                l(2) =   0
                l(3) =   1
                l(4) =   1
                l(5) =   2
                l(6) =   2
     Q(r) pseudized with  8 coefficients,  rinner =    1.300   1.300   1.300
                                                       1.300   1.300

     atomic species   valence    mass     pseudopotential
     Mo               14.00    95.95000     Mo( 1.00)
     S                 6.00    32.06500     S ( 1.00)

     Starting magnetic structure 
     atomic species   magnetization
     Mo              0.200
     S               0.000

      6 Sym. Ops. (no inversion) found ( 4 have fractional translation)


                                    s                        frac. trans.

      isym =  1     identity                                     

 cryst.   s( 1) = (     1          0          0      )
                  (     0          1          0      )
                  (     0          0          1      )

 cart.    s( 1) = (  1.0000000  0.0000000  0.0000000 )
                  (  0.0000000  1.0000000  0.0000000 )
                  (  0.0000000  0.0000000  1.0000000 )


      isym =  2     120 deg rotation - cryst. axis [0,0,1]       

 cryst.   s( 2) = (     0          1          0      )    f =(  0.0000000 )
                  (    -1         -1          0      )       ( -0.2499999 )
                  (     0          0          1      )       (  0.0000000 )

 cart.    s( 2) = ( -0.5000000 -0.8660254  0.0000000 )    f =(  0.1250000 )
                  (  0.8660254 -0.5000000  0.0000000 )       ( -0.2165062 )
                  (  0.0000000  0.0000000  1.0000000 )       (  0.0000000 )


      isym =  3     120 deg rotation - cryst. axis [0,0,-1]      

 cryst.   s( 3) = (    -1         -1          0      )    f =(  0.2500000 )
                  (     1          0          0      )       (  0.0000001 )
                  (     0          0          1      )       (  0.0000000 )

 cart.    s( 3) = ( -0.5000000  0.8660254  0.0000000 )    f =(  0.2500000 )
                  ( -0.8660254 -0.5000000  0.0000000 )       (  0.0000001 )
                  (  0.0000000  0.0000000  1.0000000 )       (  0.0000000 )


      isym =  4     inv. 180 deg rotation - cart. axis [1,0,0]   

 cryst.   s( 4) = (    -1          0          0      )    f =(  0.2500001 )
                  (     1          1          0      )       (  0.0000001 )
                  (     0          0          1      )       (  0.0000000 )

 cart.    s( 4) = ( -1.0000000  0.0000000  0.0000000 )    f =(  0.2500000 )
                  (  0.0000000  1.0000000  0.0000000 )       (  0.0000001 )
                  (  0.0000000  0.0000000  1.0000000 )       (  0.0000000 )


      isym =  5     inv. 180 deg rotation - cryst. axis [0,1,0]  

 cryst.   s( 5) = (     1          1          0      )    f =(  0.0000000 )
                  (     0         -1          0      )       ( -0.2499999 )
                  (     0          0          1      )       (  0.0000000 )

 cart.    s( 5) = (  0.5000000  0.8660254  0.0000000 )    f =(  0.1250000 )
                  (  0.8660254 -0.5000000  0.0000000 )       ( -0.2165062 )
                  (  0.0000000  0.0000000  1.0000000 )       (  0.0000000 )


      isym =  6     inv. 180 deg rotation - cryst. axis [1,1,0]  

 cryst.   s( 6) = (     0         -1          0      )
                  (    -1          0          0      )
                  (     0          0          1      )

 cart.    s( 6) = (  0.5000000 -0.8660254  0.0000000 )
                  ( -0.8660254 -0.5000000  0.0000000 )
                  (  0.0000000  0.0000000  1.0000000 )


   Cartesian axes

     site n.     atom                  positions (alat units)
         1        Mo     tau(   1) = (   0.1254627   0.0729283   0.8758678  )
         2        Mo     tau(   2) = (   0.0008892   0.2886960   0.8758678  )
         3        Mo     tau(   3) = (  -0.1250001   0.5047392   0.8750447  )
         4        Mo     tau(   4) = (  -0.2503830   0.7219090   0.8750447  )
         5        Mo     tau(   5) = (   0.3750000   0.0747549   0.8733151  )
         6        Mo     tau(   6) = (   0.2532246   0.2905368   0.8707433  )
         7        Mo     tau(   7) = (   0.1272397   0.5038884   0.8733151  )
         8        Mo     tau(   8) = (   0.0003829   0.7219090   0.8750447  )
         9        Mo     tau(   9) = (   0.6245373   0.0729284   0.8758678  )
        10        Mo     tau(  10) = (   0.4967753   0.2905368   0.8707433  )
        11        Mo     tau(  11) = (   0.3750000   0.5014581   0.8707433  )
        12        Mo     tau(  12) = (   0.2504266   0.7209073   0.8758678  )
        13        Mo     tau(  13) = (   0.8750001   0.0721687   0.8765847  )
        14        Mo     tau(  14) = (   0.7491108   0.2886960   0.8758678  )
        15        Mo     tau(  15) = (   0.6227603   0.5038885   0.8733151  )
        16        Mo     tau(  16) = (   0.4995735   0.7209074   0.8758678  )
        17        S      tau(  17) = (   0.0005854   0.1446756   0.9984957  )
        18        S      tau(  18) = (  -0.1250000   0.3611783   0.9978916  )
        19        S      tau(  19) = (  -0.2513993   0.5765424   0.9961132  )
        20        S      tau(  20) = (  -0.3747104   0.7936893   0.9978917  )
        21        S      tau(  21) = (   0.2533977   0.1496669   0.9956555  )
        22        S      tau(  22) = (   0.1313142   0.3611218   0.9956554  )
        23        S      tau(  23) = (   0.0013994   0.5765424   0.9961132  )
        24        S      tau(  24) = (  -0.1250000   0.7954725   0.9961132  )
        25        S      tau(  25) = (   0.4966022   0.1496666   0.9956556  )
        26        S      tau(  26) = (   0.2529164   0.5717431   0.9956554  )
        27        S      tau(  27) = (   0.1247104   0.7936894   0.9978916  )
        28        S      tau(  28) = (   0.7494146   0.1446756   0.9984957  )
        29        S      tau(  29) = (   0.6186860   0.3611219   0.9956556  )
        30        S      tau(  30) = (   0.4970835   0.5717431   0.9956555  )
        31        S      tau(  31) = (   0.3750000   0.7931806   0.9984957  )
        32        S      tau(  32) = (  -0.0001328   0.1442610   0.7542767  )
        33        S      tau(  33) = (  -0.1250000   0.3600323   0.7536059  )
        34        S      tau(  34) = (  -0.2503122   0.5771701   0.7528745  )
        35        S      tau(  35) = (  -0.3757028   0.7942624   0.7536057  )
        36        S      tau(  36) = (   0.2487814   0.1458474   0.7510570  )
        37        S      tau(  37) = (   0.1256982   0.3590337   0.7510571  )
        38        S      tau(  38) = (   0.0003122   0.5771701   0.7528745  )
        39        S      tau(  39) = (  -0.1250000   0.7942171   0.7528745  )
        40        S      tau(  40) = (   0.5012186   0.1458471   0.7510569  )
        41        S      tau(  41) = (   0.3749999   0.3608440   0.7483620  )
        42        S      tau(  42) = (   0.2519168   0.5776508   0.7510571  )
        43        S      tau(  43) = (   0.1257029   0.7942624   0.7536059  )
        44        S      tau(  44) = (   0.7501328   0.1442609   0.7542767  )
        45        S      tau(  45) = (   0.6243019   0.3590337   0.7510569  )
        46        S      tau(  46) = (   0.4980831   0.5776508   0.7510570  )
        47        S      tau(  47) = (   0.3750000   0.7940099   0.7542767  )

   Crystallographic axes

     site n.     atom                  positions (cryst. coord.)
         1        Mo     tau(   1) = (  0.1675679  0.0842104  0.7451453  )
         2        Mo     tau(   2) = (  0.1675680  0.3333574  0.7451453  )
         3        Mo     tau(   3) = (  0.1664112  0.5828227  0.7444450  )
         4        Mo     tau(   4) = (  0.1664113  0.8335887  0.7444450  )
         5        Mo     tau(   5) = (  0.4181597  0.0863195  0.7429736  )
         6        Mo     tau(   6) = (  0.4209660  0.3354830  0.7407856  )
         7        Mo     tau(   7) = (  0.4181598  0.5818402  0.7429736  )
         8        Mo     tau(   8) = (  0.4171773  0.8335887  0.7444450  )
         9        Mo     tau(   9) = (  0.6666425  0.0842105  0.7451453  )
        10        Mo     tau(  10) = (  0.6645169  0.3354831  0.7407856  )
        11        Mo     tau(  11) = (  0.6645170  0.5790340  0.7407856  )
        12        Mo     tau(  12) = (  0.6666426  0.8324321  0.7451453  )
        13        Mo     tau(  13) = (  0.9166667  0.0833333  0.7457552  )
        14        Mo     tau(  14) = (  0.9157895  0.3333574  0.7451453  )
        15        Mo     tau(  15) = (  0.9136805  0.5818404  0.7429736  )
        16        Mo     tau(  16) = (  0.9157896  0.8324321  0.7451453  )
        17        S      tau(  17) = (  0.0841139  0.1670570  0.8494710  )
        18        S      tau(  18) = (  0.0835264  0.4170528  0.8489572  )
        19        S      tau(  19) = (  0.0814676  0.6657338  0.8474442  )
        20        S      tau(  20) = (  0.0835264  0.9164735  0.8489572  )
        21        S      tau(  21) = (  0.3398080  0.1728204  0.8470548  )
        22        S      tau(  22) = (  0.3398079  0.4169875  0.8470547  )
        23        S      tau(  23) = (  0.3342663  0.6657338  0.8474442  )
        24        S      tau(  24) = (  0.3342662  0.9185325  0.8474442  )
        25        S      tau(  25) = (  0.5830123  0.1728201  0.8470549  )
        26        S      tau(  26) = (  0.5830124  0.6601921  0.8470547  )
        27        S      tau(  27) = (  0.5829472  0.9164736  0.8489572  )
        28        S      tau(  28) = (  0.8329431  0.1670569  0.8494710  )
        29        S      tau(  29) = (  0.8271798  0.4169876  0.8470549  )
        30        S      tau(  30) = (  0.8271796  0.6601921  0.8470548  )
        31        S      tau(  31) = (  0.8329430  0.9158861  0.8494710  )
        32        S      tau(  32) = (  0.0831563  0.1665783  0.6417015  )
        33        S      tau(  33) = (  0.0828647  0.4157295  0.6411308  )
        34        S      tau(  34) = (  0.0829171  0.6664586  0.6405086  )
        35        S      tau(  35) = (  0.0828648  0.9171353  0.6411307  )
        36        S      tau(  36) = (  0.3329864  0.1684100  0.6389624  )
        37        S      tau(  37) = (  0.3329864  0.4145764  0.6389625  )
        38        S      tau(  38) = (  0.3335415  0.6664586  0.6405086  )
        39        S      tau(  39) = (  0.3335414  0.9170829  0.6405086  )
        40        S      tau(  40) = (  0.5854235  0.1684098  0.6389623  )
        41        S      tau(  41) = (  0.5833332  0.4166667  0.6366696  )
        42        S      tau(  42) = (  0.5854237  0.6670137  0.6389625  )
        43        S      tau(  43) = (  0.5842705  0.9171353  0.6411308  )
        44        S      tau(  44) = (  0.8334219  0.1665782  0.6417016  )
        45        S      tau(  45) = (  0.8315902  0.4145765  0.6389623  )
        46        S      tau(  46) = (  0.8315900  0.6670137  0.6389624  )
        47        S      tau(  47) = (  0.8334218  0.9168437  0.6417015  )

     number of k points=     7  Fermi-Dirac smearing, width (Ry)=  0.0050
                       cart. coord. in units 2pi/alat
        k(    1) = (   0.0000000   0.0000000   0.0000000), wk =   0.0277778
        k(    2) = (   0.0000000   0.1924501   0.0000000), wk =   0.1666667
        k(    3) = (   0.0000000   0.3849002   0.0000000), wk =   0.1666667
        k(    4) = (   0.0000000  -0.5773503   0.0000000), wk =   0.0833333
        k(    5) = (   0.1666667   0.2886751   0.0000000), wk =   0.1666667
        k(    6) = (   0.1666667   0.4811252   0.0000000), wk =   0.3333333
        k(    7) = (   0.3333333   0.5773503   0.0000000), wk =   0.0555556

                       cryst. coord.
        k(    1) = (   0.0000000   0.0000000   0.0000000), wk =   0.0277778
        k(    2) = (   0.0000000   0.1666667   0.0000000), wk =   0.1666667
        k(    3) = (   0.0000000   0.3333333   0.0000000), wk =   0.1666667
        k(    4) = (   0.0000000  -0.5000000   0.0000000), wk =   0.0833333
        k(    5) = (   0.1666667   0.1666667   0.0000000), wk =   0.1666667
        k(    6) = (   0.1666667   0.3333333   0.0000000), wk =   0.3333333
        k(    7) = (   0.3333333   0.3333333   0.0000000), wk =   0.0555556

     Dense  grid:  2695269 G-vectors     FFT dimensions: ( 180, 180, 216)

     Smooth grid:  1010563 G-vectors     FFT dimensions: ( 128, 128, 150)

     Dynamical RAM for                 wfc:      59.27 MB

     Dynamical RAM for     wfc (w. buffer):     889.11 MB

     Dynamical RAM for           str. fact:      10.28 MB

     Dynamical RAM for           local pot:       0.00 MB

     Dynamical RAM for          nlocal pot:     203.85 MB

     Dynamical RAM for                qrad:       3.59 MB

     Dynamical RAM for          rho,v,vnew:      70.89 MB

     Dynamical RAM for               rhoin:      23.63 MB

     Dynamical RAM for            rho*nmix:     164.51 MB

     Dynamical RAM for           G-vectors:      20.24 MB

     Dynamical RAM for          h,s,v(r/c):      99.73 MB

     Dynamical RAM for          <psi|beta>:       3.18 MB

     Dynamical RAM for                 psi:     711.29 MB

     Dynamical RAM for                hpsi:     711.29 MB

     Dynamical RAM for                spsi:     711.29 MB

     Dynamical RAM for      wfcinit/wfcrot:     119.94 MB

     Dynamical RAM for           addusdens:    1120.70 MB

     Estimated static dynamical RAM per process >       1.25 GB

     Estimated max dynamical RAM per process >       3.59 GB

     Estimated total dynamical RAM >      28.74 GB
     Generating pointlists ...
     new r_m :   0.0769 (alat units)  1.8543 (a.u.) for type    1
     new r_m :   0.0769 (alat units)  1.8543 (a.u.) for type    2

     The initial density is read from file :
     /home/nihal/Desktop/Otptf/Trial_4.save/charge-density


     negative rho (up, down):  1.433E-03 1.433E-03
     Starting wfcs from file

     total cpu time spent up to now is       11.1 secs

     Self-consistent Calculation

     iteration #  1     ecut=    65.00 Ry     beta= 0.30
     Davidson diagonalization with overlap

---- Real-time Memory Report at c_bands before calling an iterative solver
          1321 MiB given to the printing process from OS
             0 MiB allocation reported by mallinfo(arena+hblkhd)
         11875 MiB available memory on the node where the printing process lives
------------------
     ethr =  1.00E-05,  avg # of iterations =  1.0

     Threshold (ethr) on eigenvalues was too large:
     Diagonalizing with lowered threshold

     Davidson diagonalization with overlap

---- Real-time Memory Report at c_bands before calling an iterative solver
          2449 MiB given to the printing process from OS
             0 MiB allocation reported by mallinfo(arena+hblkhd)
          7970 MiB available memory on the node where the printing process lives
------------------
     ethr =  3.01E-13,  avg # of iterations =  1.5

     negative rho (up, down):  1.433E-03 1.433E-03

     total cpu time spent up to now is      369.5 secs

     total energy              =   -2979.42712506 Ry
     estimated scf accuracy    <          1.4E-09 Ry

     total magnetization       =    -0.00 Bohr mag/cell
     absolute magnetization    =     0.00 Bohr mag/cell

     iteration #  2     ecut=    65.00 Ry     beta= 0.30
     Davidson diagonalization with overlap

---- Real-time Memory Report at c_bands before calling an iterative solver
          2492 MiB given to the printing process from OS
             0 MiB allocation reported by mallinfo(arena+hblkhd)
          7039 MiB available memory on the node where the printing process lives
------------------
     ethr =  3.32E-13,  avg # of iterations =  3.2

     negative rho (up, down):  1.433E-03 1.433E-03

     total cpu time spent up to now is      603.9 secs

     total energy              =   -2979.42712506 Ry
     estimated scf accuracy    <          6.1E-09 Ry

     total magnetization       =    -0.00 Bohr mag/cell
     absolute magnetization    =     0.00 Bohr mag/cell

     iteration #  3     ecut=    65.00 Ry     beta= 0.30
     Davidson diagonalization with overlap

---- Real-time Memory Report at c_bands before calling an iterative solver
          2500 MiB given to the printing process from OS
             0 MiB allocation reported by mallinfo(arena+hblkhd)
          7415 MiB available memory on the node where the printing process lives
------------------
     ethr =  3.32E-13,  avg # of iterations =  3.0

     negative rho (up, down):  1.433E-03 1.433E-03

     Magnetic moment per site  (integrated on atomic sphere of radius R)
     atom   1 (R=0.077)  charge= 10.6326  magn= -0.0000
     atom   2 (R=0.077)  charge= 10.6326  magn= -0.0000
     atom   3 (R=0.077)  charge= 10.6328  magn=  0.0000
     atom   4 (R=0.077)  charge= 10.6328  magn=  0.0000
     atom   5 (R=0.077)  charge= 10.6351  magn= -0.0000
     atom   6 (R=0.077)  charge= 10.6256  magn= -0.0000
     atom   7 (R=0.077)  charge= 10.6351  magn= -0.0000
     atom   8 (R=0.077)  charge= 10.6328  magn=  0.0000
     atom   9 (R=0.077)  charge= 10.6326  magn= -0.0000
     atom  10 (R=0.077)  charge= 10.6256  magn= -0.0000
     atom  11 (R=0.077)  charge= 10.6256  magn= -0.0000
     atom  12 (R=0.077)  charge= 10.6326  magn= -0.0000
     atom  13 (R=0.077)  charge= 10.6353  magn= -0.0000
     atom  14 (R=0.077)  charge= 10.6326  magn= -0.0000
     atom  15 (R=0.077)  charge= 10.6351  magn= -0.0000
     atom  16 (R=0.077)  charge= 10.6326  magn= -0.0000
     atom  17 (R=0.077)  charge=  4.0512  magn=  0.0000
     atom  18 (R=0.077)  charge=  4.0492  magn=  0.0000
     atom  19 (R=0.077)  charge=  4.0497  magn=  0.0000
     atom  20 (R=0.077)  charge=  4.0492  magn=  0.0000
     atom  21 (R=0.077)  charge=  4.0521  magn=  0.0000
     atom  22 (R=0.077)  charge=  4.0521  magn=  0.0000
     atom  23 (R=0.077)  charge=  4.0497  magn=  0.0000
     atom  24 (R=0.077)  charge=  4.0497  magn=  0.0000
     atom  25 (R=0.077)  charge=  4.0521  magn=  0.0000
     atom  26 (R=0.077)  charge=  4.0521  magn=  0.0000
     atom  27 (R=0.077)  charge=  4.0492  magn=  0.0000
     atom  28 (R=0.077)  charge=  4.0512  magn=  0.0000
     atom  29 (R=0.077)  charge=  4.0521  magn=  0.0000
     atom  30 (R=0.077)  charge=  4.0521  magn=  0.0000
     atom  31 (R=0.077)  charge=  4.0512  magn=  0.0000
     atom  32 (R=0.077)  charge=  4.0549  magn=  0.0000
     atom  33 (R=0.077)  charge=  4.0519  magn=  0.0000
     atom  34 (R=0.077)  charge=  4.0518  magn=  0.0000
     atom  35 (R=0.077)  charge=  4.0519  magn=  0.0000
     atom  36 (R=0.077)  charge=  4.0490  magn=  0.0000
     atom  37 (R=0.077)  charge=  4.0490  magn=  0.0000
     atom  38 (R=0.077)  charge=  4.0518  magn=  0.0000
     atom  39 (R=0.077)  charge=  4.0518  magn=  0.0000
     atom  40 (R=0.077)  charge=  4.0490  magn=  0.0000
     atom  41 (R=0.077)  charge=  4.0785  magn=  0.0000
     atom  42 (R=0.077)  charge=  4.0490  magn=  0.0000
     atom  43 (R=0.077)  charge=  4.0519  magn=  0.0000
     atom  44 (R=0.077)  charge=  4.0549  magn=  0.0000
     atom  45 (R=0.077)  charge=  4.0490  magn=  0.0000
     atom  46 (R=0.077)  charge=  4.0490  magn=  0.0000
     atom  47 (R=0.077)  charge=  4.0549  magn=  0.0000

     total cpu time spent up to now is      818.4 secs

     End of self-consistent calculation

 ------ SPIN UP ------------


          k = 0.0000 0.0000 0.0000 (126355 PWs)   bands (ev):

   -60.3634 -60.3560 -60.3559 -60.3448 -60.3379 -60.3378 -60.3322 -60.3096
   -60.3095 -60.3076 -60.3000 -60.2999 -60.2965 -60.2915 -60.2755 -60.2754
   -34.6615 -34.6615 -34.6172 -34.5969 -34.5894 -34.5894 -34.5648 -34.5648
   -34.5255 -34.4864 -34.4753 -34.4745 -34.4744 -34.4724 -34.4724 -34.4521
   -34.4521 -34.4506 -34.4482 -34.4392 -34.4353 -34.4322 -34.4322 -34.4294
   -34.4294 -34.4050 -34.4050 -34.4005 -34.4004 -34.3972 -34.3863 -34.3863
   -34.3856 -34.3853 -34.3773 -34.3772 -34.3672 -34.3671 -34.3563 -34.3561
   -34.3373 -34.3373 -34.3346 -34.3059 -34.2934 -34.2934 -34.2152 -34.2151
   -13.4635 -12.7102 -12.7101 -12.6861 -12.6726 -12.6726 -12.5511 -12.1697
   -11.8947 -11.8947 -11.8474 -11.8459 -11.8459 -11.8117 -11.7195 -11.7195
   -11.7095 -11.7094 -11.6942 -11.6754 -11.6753 -11.6682 -11.5587 -11.4798
   -11.4798 -11.4567 -11.4567 -11.4395 -11.4394 -11.4354 -11.4272  -5.2006
    -5.0980  -5.0979  -4.9847  -4.5273  -4.5248  -4.5248  -4.4949  -4.4743
    -4.4743  -4.4265  -4.4096  -4.4096  -4.3878  -4.3878  -4.3674  -4.3120
    -4.3120  -4.2856  -4.2646  -4.2347  -4.2347  -4.1430  -3.9423  -3.9423
    -3.4818  -3.4818  -3.4374  -3.3175  -3.2613  -3.2495  -3.2495  -3.1809
    -3.1809  -3.0898  -3.0509  -3.0407  -3.0407  -3.0322  -3.0321  -2.9946
    -2.9730  -2.9730  -2.8490  -2.8490  -2.7261  -2.6699  -2.6699  -2.6398
    -2.6139  -2.6139  -2.5888  -2.4512  -2.4424  -2.4424  -2.3215  -2.3215
    -2.2968  -2.2455  -2.1603  -2.1603  -2.0314  -2.0314  -1.9350  -1.9223
    -1.9223  -1.9039  -1.6022  -1.6022  -1.2946  -1.2904  -1.2904  -1.2868
    -1.2729  -1.2729  -1.1844  -1.1590  -1.1077  -1.1077  -1.0602  -1.0601
    -1.0350  -1.0016  -1.0016  -0.9172  -0.8486  -0.8486  -0.7947  -0.7401
    -0.7401  -0.5405  -0.5405  -0.4561  -0.2447  -0.1677  -0.1677  -0.1353
    -0.1228  -0.1199  -0.1199  -0.0463  -0.0463  -0.0032  -0.0032   0.0254
     0.0366   0.0774   0.0775   0.4359   0.6833   1.7419   1.7419   2.6690
     2.6853   2.6919   2.6919   2.7268   2.7268   2.7366   2.7466   2.7466
     2.7720   2.7720   2.8076   2.8146   2.8147   2.8649   2.9130   2.9220
     2.9220   2.9759   3.1583   3.1583   3.2737   3.2935   3.2935   3.3256
     3.3256   3.3435   3.3550   3.3550   3.3860   3.4184   3.4184   3.4550
     3.4550   3.4613   3.5095   3.5095   3.5953   3.6600

     occupation numbers 
     1.0000   1.0000   1.0000   1.0000   1.0000   1.0000   1.0000   1.0000
     1.0000   1.0000   1.0000   1.0000   1.0000   1.0000   1.0000   1.0000
     1.0000   1.0000   1.0000   1.0000   1.0000   1.0000   1.0000   1.0000
     1.0000   1.0000   1.0000   1.0000   1.0000   1.0000   1.0000   1.0000
     1.0000   1.0000   1.0000   1.0000   1.0000   1.0000   1.0000   1.0000
     1.0000   1.0000   1.0000   1.0000   1.0000   1.0000   1.0000   1.0000
     1.0000   1.0000   1.0000   1.0000   1.0000   1.0000   1.0000   1.0000
     1.0000   1.0000   1.0000   1.0000   1.0000   1.0000   1.0000   1.0000
     1.0000   1.0000   1.0000   1.0000   1.0000   1.0000   1.0000   1.0000
     1.0000   1.0000   1.0000   1.0000   1.0000   1.0000   1.0000   1.0000
     1.0000   1.0000   1.0000   1.0000   1.0000   1.0000   1.0000   1.0000
     1.0000   1.0000   1.0000   1.0000   1.0000   1.0000   1.0000   1.0000
     1.0000   1.0000   1.0000   1.0000   1.0000   1.0000   1.0000   1.0000
     1.0000   1.0000   1.0000   1.0000   1.0000   1.0000   1.0000   1.0000
     1.0000   1.0000   1.0000   1.0000   1.0000   1.0000   1.0000   1.0000
     1.0000   1.0000   1.0000   1.0000   1.0000   1.0000   1.0000   1.0000
     1.0000   1.0000   1.0000   1.0000   1.0000   1.0000   1.0000   1.0000
     1.0000   1.0000   1.0000   1.0000   1.0000   1.0000   1.0000   1.0000
     1.0000   1.0000   1.0000   1.0000   1.0000   1.0000   1.0000   1.0000
     1.0000   1.0000   1.0000   1.0000   1.0000   1.0000   1.0000   1.0000
     1.0000   1.0000   1.0000   1.0000   1.0000   1.0000   1.0000   1.0000
     1.0000   1.0000   1.0000   1.0000   1.0000   1.0000   1.0000   1.0000
     1.0000   1.0000   1.0000   1.0000   1.0000   1.0000   1.0000   1.0000
     1.0000   1.0000   1.0000   1.0000   1.0000   1.0000   1.0000   1.0000
     1.0000   1.0000   1.0000   1.0000   1.0000   1.0000   1.0000   1.0000
     1.0000   1.0000   1.0000   1.0000   0.9992   0.0002   0.0002   0.0000
     0.0000   0.0000   0.0000   0.0000   0.0000   0.0000   0.0000   0.0000
     0.0000   0.0000   0.0000   0.0000   0.0000   0.0000   0.0000   0.0000
     0.0000   0.0000   0.0000   0.0000   0.0000   0.0000   0.0000   0.0000
     0.0000   0.0000   0.0000   0.0000   0.0000   0.0000   0.0000   0.0000
     0.0000   0.0000   0.0000   0.0000   0.0000   0.0000

          k = 0.0000 0.1925 0.0000 (126305 PWs)   bands (ev):

   -60.3631 -60.3563 -60.3559 -60.3446 -60.3380 -60.3378 -60.3320 -60.3095
   -60.3095 -60.3076 -60.3002 -60.3000 -60.2963 -60.2915 -60.2755 -60.2754
   -34.6587 -34.6566 -34.6138 -34.5994 -34.5914 -34.5887 -34.5693 -34.5616
   -34.5323 -34.5084 -34.4916 -34.4832 -34.4749 -34.4679 -34.4560 -34.4538
   -34.4524 -34.4442 -34.4439 -34.4397 -34.4350 -34.4291 -34.4282 -34.4241
   -34.4209 -34.4053 -34.4053 -34.4032 -34.3970 -34.3949 -34.3876 -34.3873
   -34.3851 -34.3779 -34.3775 -34.3730 -34.3679 -34.3672 -34.3562 -34.3561
   -34.3415 -34.3399 -34.3343 -34.3061 -34.2970 -34.2936 -34.2175 -34.2155
   -13.4388 -12.8938 -12.7912 -12.7477 -12.5585 -12.5123 -12.4248 -12.1599
   -11.9502 -11.9176 -11.8865 -11.8620 -11.8454 -11.8112 -11.7858 -11.7626
   -11.7165 -11.7086 -11.6812 -11.6776 -11.6248 -11.5799 -11.5471 -11.5179
   -11.4997 -11.4823 -11.4673 -11.4452 -11.4379 -11.4034 -11.3839  -5.1634
    -5.0645  -5.0638  -4.9552  -4.5842  -4.5503  -4.5487  -4.5338  -4.5196
    -4.4891  -4.4694  -4.4410  -4.4282  -4.4220  -4.4060  -4.3881  -4.3880
    -4.3005  -4.2677  -4.2509  -4.1636  -4.0950  -4.0863  -3.9109  -3.8893
    -3.4687  -3.4682  -3.4186  -3.3331  -3.3030  -3.2764  -3.2746  -3.1921
    -3.1631  -3.1604  -3.1300  -3.1079  -3.0985  -3.0842  -3.0765  -3.0088
    -3.0040  -2.8985  -2.7596  -2.7525  -2.6922  -2.6769  -2.6441  -2.6417
    -2.5939  -2.5875  -2.5609  -2.5559  -2.5412  -2.3936  -2.2976  -2.2927
    -2.1616  -2.1513  -2.1128  -2.0988  -2.0642  -2.0158  -1.9989  -1.9728
    -1.9264  -1.8008  -1.6350  -1.5982  -1.4350  -1.4128  -1.3173  -1.2943
    -1.2472  -1.2421  -1.2238  -1.2091  -1.1492  -1.1460  -1.0689  -1.0624
    -1.0200  -0.9642  -0.9117  -0.9040  -0.8229  -0.8005  -0.7503  -0.6735
    -0.6630  -0.6119  -0.6032  -0.5136  -0.3294  -0.2623  -0.2276  -0.1562
    -0.1313  -0.1259  -0.0507  -0.0373  -0.0302   0.0136   0.0142   0.0361
     0.1122   0.1857   0.1909   0.4408   0.6669   1.7419   1.7471   2.5696
     2.5841   2.6820   2.6896   2.7119   2.7179   2.7226   2.7314   2.7581
     2.7625   2.7864   2.7936   2.8261   2.8301   2.8658   2.8938   2.9649
     2.9714   3.0049   3.1112   3.1171   3.1877   3.2227   3.2408   3.2533
     3.2827   3.2894   3.3209   3.3426   3.3685   3.3803   3.4201   3.4371
     3.5147   3.5342   3.6081   3.6276   3.6438   3.6440

     occupation numbers 
     1.0000   1.0000   1.0000   1.0000   1.0000   1.0000   1.0000   1.0000
     1.0000   1.0000   1.0000   1.0000   1.0000   1.0000   1.0000   1.0000
     1.0000   1.0000   1.0000   1.0000   1.0000   1.0000   1.0000   1.0000
     1.0000   1.0000   1.0000   1.0000   1.0000   1.0000   1.0000   1.0000
     1.0000   1.0000   1.0000   1.0000   1.0000   1.0000   1.0000   1.0000
     1.0000   1.0000   1.0000   1.0000   1.0000   1.0000   1.0000   1.0000
     1.0000   1.0000   1.0000   1.0000   1.0000   1.0000   1.0000   1.0000
     1.0000   1.0000   1.0000   1.0000   1.0000   1.0000   1.0000   1.0000
     1.0000   1.0000   1.0000   1.0000   1.0000   1.0000   1.0000   1.0000
     1.0000   1.0000   1.0000   1.0000   1.0000   1.0000   1.0000   1.0000
     1.0000   1.0000   1.0000   1.0000   1.0000   1.0000   1.0000   1.0000
     1.0000   1.0000   1.0000   1.0000   1.0000   1.0000   1.0000   1.0000
     1.0000   1.0000   1.0000   1.0000   1.0000   1.0000   1.0000   1.0000
     1.0000   1.0000   1.0000   1.0000   1.0000   1.0000   1.0000   1.0000
     1.0000   1.0000   1.0000   1.0000   1.0000   1.0000   1.0000   1.0000
     1.0000   1.0000   1.0000   1.0000   1.0000   1.0000   1.0000   1.0000
     1.0000   1.0000   1.0000   1.0000   1.0000   1.0000   1.0000   1.0000
     1.0000   1.0000   1.0000   1.0000   1.0000   1.0000   1.0000   1.0000
     1.0000   1.0000   1.0000   1.0000   1.0000   1.0000   1.0000   1.0000
     1.0000   1.0000   1.0000   1.0000   1.0000   1.0000   1.0000   1.0000
     1.0000   1.0000   1.0000   1.0000   1.0000   1.0000   1.0000   1.0000
     1.0000   1.0000   1.0000   1.0000   1.0000   1.0000   1.0000   1.0000
     1.0000   1.0000   1.0000   1.0000   1.0000   1.0000   1.0000   1.0000
     1.0000   1.0000   1.0000   1.0000   1.0000   1.0000   1.0000   1.0000
     1.0000   1.0000   1.0000   1.0000   1.0000   1.0000   1.0000   1.0000
     1.0000   1.0000   1.0000   1.0000   0.9994   0.0002   0.0002   0.0000
     0.0000   0.0000   0.0000   0.0000   0.0000   0.0000   0.0000   0.0000
     0.0000   0.0000   0.0000   0.0000   0.0000   0.0000   0.0000   0.0000
     0.0000   0.0000   0.0000   0.0000   0.0000   0.0000   0.0000   0.0000
     0.0000   0.0000   0.0000   0.0000   0.0000   0.0000   0.0000   0.0000
     0.0000   0.0000   0.0000   0.0000   0.0000   0.0000

          k = 0.0000 0.3849 0.0000 (126328 PWs)   bands (ev):

   -60.3626 -60.3570 -60.3560 -60.3444 -60.3384 -60.3378 -60.3317 -60.3094
   -60.3093 -60.3075 -60.3005 -60.3003 -60.2961 -60.2914 -60.2756 -60.2754
   -34.6514 -34.6431 -34.6101 -34.6064 -34.5950 -34.5906 -34.5714 -34.5539
   -34.5488 -34.5335 -34.5100 -34.4847 -34.4758 -34.4731 -34.4586 -34.4561
   -34.4528 -34.4420 -34.4335 -34.4311 -34.4307 -34.4276 -34.4260 -34.4122
   -34.4081 -34.4057 -34.4040 -34.3970 -34.3919 -34.3909 -34.3888 -34.3853
   -34.3829 -34.3778 -34.3765 -34.3763 -34.3663 -34.3567 -34.3561 -34.3524
   -34.3498 -34.3452 -34.3358 -34.3073 -34.3069 -34.2935 -34.2223 -34.2161
   -13.3662 -13.0840 -12.8513 -12.7989 -12.4013 -12.3668 -12.2137 -12.1318
   -12.0436 -12.0367 -11.9913 -11.9348 -11.8966 -11.8250 -11.7523 -11.7375
   -11.7054 -11.6828 -11.6815 -11.6691 -11.6308 -11.5936 -11.5608 -11.5213
   -11.5007 -11.4769 -11.4644 -11.4457 -11.4383 -11.3734 -11.3476  -5.0581
    -4.9707  -4.9673  -4.8703  -4.7242  -4.6762  -4.6593  -4.6166  -4.6069
    -4.5747  -4.5091  -4.4999  -4.4389  -4.4229  -4.4068  -4.3627  -4.3547
    -4.3072  -4.2481  -4.2263  -4.1698  -4.0311  -3.9359  -3.7422  -3.7119
    -3.5325  -3.4303  -3.4276  -3.3751  -3.3302  -3.3088  -3.3071  -3.2875
    -3.2623  -3.2455  -3.2383  -3.2010  -3.1547  -3.1518  -3.1250  -3.0073
    -2.9342  -2.7977  -2.6949  -2.6827  -2.6539  -2.6369  -2.6271  -2.6267
    -2.5981  -2.5612  -2.5430  -2.4815  -2.4403  -2.4110  -2.3806  -2.3251
    -2.3085  -2.2394  -2.1084  -2.0832  -2.0147  -1.9376  -1.8527  -1.7591
    -1.7490  -1.6843  -1.6789  -1.5772  -1.5748  -1.4686  -1.3840  -1.3649
    -1.3191  -1.3113  -1.2281  -1.2214  -1.1727  -1.1661  -1.1367  -1.1240
    -1.0136  -1.0044  -0.9508  -0.9076  -0.8182  -0.7883  -0.7485  -0.6811
    -0.6186  -0.6059  -0.5018  -0.4650  -0.3845  -0.3111  -0.2702  -0.2341
    -0.2000  -0.1953  -0.0092   0.0058   0.0178   0.0391   0.0516   0.0661
     0.2930   0.3212   0.3299   0.4546   0.6181   1.7418   1.7606   2.4270
     2.4571   2.6065   2.6342   2.6568   2.6880   2.6954   2.7197   2.7404
     2.7580   2.7738   2.8040   2.8429   2.8728   2.8996   2.9323   2.9962
     3.0082   3.0443   3.0645   3.0954   3.1032   3.1217   3.1479   3.1759
     3.2020   3.2525   3.2725   3.3015   3.3422   3.3516   3.3703   3.4666
     3.5103   3.5354   3.5805   3.6567   3.7438   3.8124

     occupation numbers 
     1.0000   1.0000   1.0000   1.0000   1.0000   1.0000   1.0000   1.0000
     1.0000   1.0000   1.0000   1.0000   1.0000   1.0000   1.0000   1.0000
     1.0000   1.0000   1.0000   1.0000   1.0000   1.0000   1.0000   1.0000
     1.0000   1.0000   1.0000   1.0000   1.0000   1.0000   1.0000   1.0000
     1.0000   1.0000   1.0000   1.0000   1.0000   1.0000   1.0000   1.0000
     1.0000   1.0000   1.0000   1.0000   1.0000   1.0000   1.0000   1.0000
     1.0000   1.0000   1.0000   1.0000   1.0000   1.0000   1.0000   1.0000
     1.0000   1.0000   1.0000   1.0000   1.0000   1.0000   1.0000   1.0000
     1.0000   1.0000   1.0000   1.0000   1.0000   1.0000   1.0000   1.0000
     1.0000   1.0000   1.0000   1.0000   1.0000   1.0000   1.0000   1.0000
     1.0000   1.0000   1.0000   1.0000   1.0000   1.0000   1.0000   1.0000
     1.0000   1.0000   1.0000   1.0000   1.0000   1.0000   1.0000   1.0000
     1.0000   1.0000   1.0000   1.0000   1.0000   1.0000   1.0000   1.0000
     1.0000   1.0000   1.0000   1.0000   1.0000   1.0000   1.0000   1.0000
     1.0000   1.0000   1.0000   1.0000   1.0000   1.0000   1.0000   1.0000
     1.0000   1.0000   1.0000   1.0000   1.0000   1.0000   1.0000   1.0000
     1.0000   1.0000   1.0000   1.0000   1.0000   1.0000   1.0000   1.0000
     1.0000   1.0000   1.0000   1.0000   1.0000   1.0000   1.0000   1.0000
     1.0000   1.0000   1.0000   1.0000   1.0000   1.0000   1.0000   1.0000
     1.0000   1.0000   1.0000   1.0000   1.0000   1.0000   1.0000   1.0000
     1.0000   1.0000   1.0000   1.0000   1.0000   1.0000   1.0000   1.0000
     1.0000   1.0000   1.0000   1.0000   1.0000   1.0000   1.0000   1.0000
     1.0000   1.0000   1.0000   1.0000   1.0000   1.0000   1.0000   1.0000
     1.0000   1.0000   1.0000   1.0000   1.0000   1.0000   1.0000   1.0000
     1.0000   1.0000   1.0000   1.0000   1.0000   1.0000   1.0000   1.0000
     1.0000   1.0000   1.0000   1.0000   0.9997   0.0002   0.0002   0.0000
     0.0000   0.0000   0.0000   0.0000   0.0000   0.0000   0.0000   0.0000
     0.0000   0.0000   0.0000   0.0000   0.0000   0.0000   0.0000   0.0000
     0.0000   0.0000   0.0000   0.0000   0.0000   0.0000   0.0000   0.0000
     0.0000   0.0000   0.0000   0.0000   0.0000   0.0000   0.0000   0.0000
     0.0000   0.0000   0.0000   0.0000   0.0000   0.0000

          k = 0.0000-0.5774 0.0000 (126288 PWs)   bands (ev):

   -60.3623 -60.3575 -60.3560 -60.3442 -60.3386 -60.3377 -60.3316 -60.3094
   -60.3092 -60.3075 -60.3007 -60.3004 -60.2960 -60.2913 -60.2756 -60.2754
   -34.6459 -34.6289 -34.6175 -34.6143 -34.5938 -34.5896 -34.5692 -34.5579
   -34.5479 -34.5457 -34.5198 -34.4809 -34.4799 -34.4720 -34.4654 -34.4595
   -34.4530 -34.4428 -34.4326 -34.4275 -34.4253 -34.4217 -34.4213 -34.4076
   -34.4055 -34.4051 -34.3986 -34.3966 -34.3964 -34.3905 -34.3896 -34.3890
   -34.3815 -34.3774 -34.3687 -34.3676 -34.3672 -34.3582 -34.3565 -34.3551
   -34.3550 -34.3377 -34.3369 -34.3159 -34.3081 -34.2932 -34.2248 -34.2164
   -13.2685 -13.2219 -12.8717 -12.8172 -12.2459 -12.2291 -12.2224 -12.1580
   -12.0967 -12.0768 -12.0175 -11.9530 -11.9431 -11.9007 -11.7091 -11.7050
   -11.6996 -11.6745 -11.6660 -11.6639 -11.6582 -11.6023 -11.5962 -11.5505
   -11.4796 -11.4614 -11.4579 -11.4427 -11.4384 -11.3624 -11.3347  -4.9249
    -4.8776  -4.8669  -4.8475  -4.7885  -4.7842  -4.7603  -4.7101  -4.6596
    -4.6574  -4.4948  -4.4936  -4.4514  -4.4369  -4.4132  -4.3423  -4.3285
    -4.2981  -4.2452  -4.2295  -4.1440  -4.0345  -3.8109  -3.7347  -3.5668
    -3.5074  -3.4373  -3.4367  -3.3823  -3.3711  -3.3630  -3.3339  -3.3317
    -3.3056  -3.2948  -3.2807  -3.2396  -3.1973  -3.1733  -3.1291  -2.9908
    -2.9558  -2.6688  -2.6593  -2.6332  -2.6300  -2.6012  -2.5874  -2.5719
    -2.5644  -2.5576  -2.5514  -2.5266  -2.5190  -2.4292  -2.4288  -2.3924
    -2.3587  -2.2306  -2.1077  -2.0373  -2.0220  -1.9290  -1.8558  -1.8284
    -1.6920  -1.5080  -1.4955  -1.4375  -1.4056  -1.4014  -1.3964  -1.3738
    -1.3602  -1.3528  -1.3286  -1.3156  -1.2901  -1.2143  -1.1908  -1.1727
    -1.1654  -1.1644  -0.9595  -0.9296  -0.8083  -0.7244  -0.7029  -0.6548
    -0.6355  -0.5986  -0.4403  -0.4146  -0.3565  -0.3162  -0.2954  -0.2702
    -0.2509  -0.2231   0.0035   0.0313   0.0322   0.0497   0.0695   0.0790
     0.3722   0.3800   0.4036   0.4681   0.5708   1.7413   1.7692   2.3630
     2.4023   2.5686   2.5978   2.6101   2.6591   2.6835   2.7167   2.7413
     2.7607   2.7702   2.8059   2.8359   2.8853   2.9955   3.0037   3.0195
     3.0250   3.0417   3.0455   3.0573   3.0617   3.0752   3.0770   3.1309
     3.1451   3.2034   3.2987   3.3026   3.3260   3.3268   3.3446   3.4973
     3.5190   3.5311   3.6210   3.6624   3.6818   3.7451

     occupation numbers 
     1.0000   1.0000   1.0000   1.0000   1.0000   1.0000   1.0000   1.0000
     1.0000   1.0000   1.0000   1.0000   1.0000   1.0000   1.0000   1.0000
     1.0000   1.0000   1.0000   1.0000   1.0000   1.0000   1.0000   1.0000
     1.0000   1.0000   1.0000   1.0000   1.0000   1.0000   1.0000   1.0000
     1.0000   1.0000   1.0000   1.0000   1.0000   1.0000   1.0000   1.0000
     1.0000   1.0000   1.0000   1.0000   1.0000   1.0000   1.0000   1.0000
     1.0000   1.0000   1.0000   1.0000   1.0000   1.0000   1.0000   1.0000
     1.0000   1.0000   1.0000   1.0000   1.0000   1.0000   1.0000   1.0000
     1.0000   1.0000   1.0000   1.0000   1.0000   1.0000   1.0000   1.0000
     1.0000   1.0000   1.0000   1.0000   1.0000   1.0000   1.0000   1.0000
     1.0000   1.0000   1.0000   1.0000   1.0000   1.0000   1.0000   1.0000
     1.0000   1.0000   1.0000   1.0000   1.0000   1.0000   1.0000   1.0000
     1.0000   1.0000   1.0000   1.0000   1.0000   1.0000   1.0000   1.0000
     1.0000   1.0000   1.0000   1.0000   1.0000   1.0000   1.0000   1.0000
     1.0000   1.0000   1.0000   1.0000   1.0000   1.0000   1.0000   1.0000
     1.0000   1.0000   1.0000   1.0000   1.0000   1.0000   1.0000   1.0000
     1.0000   1.0000   1.0000   1.0000   1.0000   1.0000   1.0000   1.0000
     1.0000   1.0000   1.0000   1.0000   1.0000   1.0000   1.0000   1.0000
     1.0000   1.0000   1.0000   1.0000   1.0000   1.0000   1.0000   1.0000
     1.0000   1.0000   1.0000   1.0000   1.0000   1.0000   1.0000   1.0000
     1.0000   1.0000   1.0000   1.0000   1.0000   1.0000   1.0000   1.0000
     1.0000   1.0000   1.0000   1.0000   1.0000   1.0000   1.0000   1.0000
     1.0000   1.0000   1.0000   1.0000   1.0000   1.0000   1.0000   1.0000
     1.0000   1.0000   1.0000   1.0000   1.0000   1.0000   1.0000   1.0000
     1.0000   1.0000   1.0000   1.0000   1.0000   1.0000   1.0000   1.0000
     1.0000   1.0000   1.0000   1.0000   0.9998   0.0002   0.0001   0.0000
     0.0000   0.0000   0.0000   0.0000   0.0000   0.0000   0.0000   0.0000
     0.0000   0.0000   0.0000   0.0000   0.0000   0.0000   0.0000   0.0000
     0.0000   0.0000   0.0000   0.0000   0.0000   0.0000   0.0000   0.0000
     0.0000   0.0000   0.0000   0.0000   0.0000   0.0000   0.0000   0.0000
     0.0000   0.0000   0.0000   0.0000   0.0000   0.0000

          k = 0.1667 0.2887 0.0000 (126343 PWs)   bands (ev):

   -60.3627 -60.3568 -60.3560 -60.3444 -60.3383 -60.3378 -60.3318 -60.3094
   -60.3093 -60.3076 -60.3004 -60.3002 -60.2961 -60.2914 -60.2756 -60.2754
   -34.6535 -34.6475 -34.6081 -34.6043 -34.5992 -34.5826 -34.5762 -34.5591
   -34.5406 -34.5287 -34.5010 -34.4941 -34.4736 -34.4659 -34.4564 -34.4549
   -34.4531 -34.4424 -34.4385 -34.4341 -34.4301 -34.4281 -34.4263 -34.4245
   -34.4066 -34.4048 -34.4025 -34.3968 -34.3940 -34.3906 -34.3879 -34.3868
   -34.3842 -34.3789 -34.3773 -34.3737 -34.3670 -34.3585 -34.3560 -34.3556
   -34.3470 -34.3441 -34.3357 -34.3077 -34.3026 -34.2940 -34.2209 -34.2160
   -13.3901 -12.9931 -12.9552 -12.6427 -12.5767 -12.3172 -12.2997 -12.1412
   -12.0386 -11.9861 -11.9696 -11.8636 -11.8522 -11.8286 -11.7975 -11.7653
   -11.7480 -11.7001 -11.6904 -11.6253 -11.6008 -11.5873 -11.5361 -11.5298
   -11.5035 -11.4945 -11.4884 -11.4468 -11.4059 -11.3976 -11.3514  -5.0918
    -5.0003  -4.9986  -4.8980  -4.6660  -4.6413  -4.6150  -4.5764  -4.5487
    -4.5419  -4.5216  -4.5082  -4.4887  -4.4479  -4.4410  -4.3866  -4.3601
    -4.2944  -4.2338  -4.1994  -4.0970  -4.0523  -3.9818  -3.8803  -3.7087
    -3.4493  -3.4466  -3.4374  -3.4150  -3.3549  -3.3260  -3.2880  -3.2689
    -3.2324  -3.2246  -3.1868  -3.1742  -3.1339  -3.1157  -3.0528  -2.9774
    -2.9359  -2.8891  -2.8213  -2.7772  -2.6913  -2.6663  -2.6235  -2.5997
    -2.5710  -2.5445  -2.5163  -2.4804  -2.3927  -2.3603  -2.3061  -2.2787
    -2.2584  -2.2348  -2.2133  -2.1448  -2.0547  -1.9578  -1.8708  -1.7777
    -1.7433  -1.7420  -1.6471  -1.6189  -1.5964  -1.4699  -1.3835  -1.3391
    -1.3122  -1.2583  -1.2396  -1.2289  -1.1985  -1.1330  -1.1008  -1.0518
    -0.9976  -0.9645  -0.9527  -0.9186  -0.8269  -0.7971  -0.7375  -0.6819
    -0.6224  -0.5913  -0.5462  -0.5260  -0.3526  -0.3395  -0.2288  -0.1970
    -0.1386  -0.1316  -0.1151  -0.0994  -0.0519   0.0650   0.1222   0.1523
     0.2121   0.2201   0.3427   0.4491   0.6339   1.7376   1.7613   2.4061
     2.5931   2.6061   2.6308   2.6678   2.6819   2.7089   2.7236   2.7441
     2.7671   2.7751   2.8094   2.8308   2.8578   2.8802   2.9249   2.9832
     3.0048   3.0416   3.0701   3.1018   3.1360   3.1528   3.1713   3.1795
     3.2171   3.2334   3.2935   3.3025   3.3035   3.3649   3.3814   3.4627
     3.5323   3.5517   3.6338   3.6843   3.7102   3.7229

     occupation numbers 
     1.0000   1.0000   1.0000   1.0000   1.0000   1.0000   1.0000   1.0000
     1.0000   1.0000   1.0000   1.0000   1.0000   1.0000   1.0000   1.0000
     1.0000   1.0000   1.0000   1.0000   1.0000   1.0000   1.0000   1.0000
     1.0000   1.0000   1.0000   1.0000   1.0000   1.0000   1.0000   1.0000
     1.0000   1.0000   1.0000   1.0000   1.0000   1.0000   1.0000   1.0000
     1.0000   1.0000   1.0000   1.0000   1.0000   1.0000   1.0000   1.0000
     1.0000   1.0000   1.0000   1.0000   1.0000   1.0000   1.0000   1.0000
     1.0000   1.0000   1.0000   1.0000   1.0000   1.0000   1.0000   1.0000
     1.0000   1.0000   1.0000   1.0000   1.0000   1.0000   1.0000   1.0000
     1.0000   1.0000   1.0000   1.0000   1.0000   1.0000   1.0000   1.0000
     1.0000   1.0000   1.0000   1.0000   1.0000   1.0000   1.0000   1.0000
     1.0000   1.0000   1.0000   1.0000   1.0000   1.0000   1.0000   1.0000
     1.0000   1.0000   1.0000   1.0000   1.0000   1.0000   1.0000   1.0000
     1.0000   1.0000   1.0000   1.0000   1.0000   1.0000   1.0000   1.0000
     1.0000   1.0000   1.0000   1.0000   1.0000   1.0000   1.0000   1.0000
     1.0000   1.0000   1.0000   1.0000   1.0000   1.0000   1.0000   1.0000
     1.0000   1.0000   1.0000   1.0000   1.0000   1.0000   1.0000   1.0000
     1.0000   1.0000   1.0000   1.0000   1.0000   1.0000   1.0000   1.0000
     1.0000   1.0000   1.0000   1.0000   1.0000   1.0000   1.0000   1.0000
     1.0000   1.0000   1.0000   1.0000   1.0000   1.0000   1.0000   1.0000
     1.0000   1.0000   1.0000   1.0000   1.0000   1.0000   1.0000   1.0000
     1.0000   1.0000   1.0000   1.0000   1.0000   1.0000   1.0000   1.0000
     1.0000   1.0000   1.0000   1.0000   1.0000   1.0000   1.0000   1.0000
     1.0000   1.0000   1.0000   1.0000   1.0000   1.0000   1.0000   1.0000
     1.0000   1.0000   1.0000   1.0000   1.0000   1.0000   1.0000   1.0000
     1.0000   1.0000   1.0000   1.0000   0.9996   0.0002   0.0002   0.0000
     0.0000   0.0000   0.0000   0.0000   0.0000   0.0000   0.0000   0.0000
     0.0000   0.0000   0.0000   0.0000   0.0000   0.0000   0.0000   0.0000
     0.0000   0.0000   0.0000   0.0000   0.0000   0.0000   0.0000   0.0000
     0.0000   0.0000   0.0000   0.0000   0.0000   0.0000   0.0000   0.0000
     0.0000   0.0000   0.0000   0.0000   0.0000   0.0000

          k = 0.1667 0.4811 0.0000 (126406 PWs)   bands (ev):

   -60.3623 -60.3574 -60.3561 -60.3442 -60.3386 -60.3378 -60.3316 -60.3094
   -60.3092 -60.3075 -60.3007 -60.3005 -60.2960 -60.2913 -60.2756 -60.2754
   -34.6457 -34.6328 -34.6153 -34.6059 -34.6005 -34.5870 -34.5731 -34.5614
   -34.5556 -34.5311 -34.5168 -34.4973 -34.4722 -34.4718 -34.4589 -34.4547
   -34.4489 -34.4423 -34.4414 -34.4328 -34.4278 -34.4249 -34.4206 -34.4080
   -34.4065 -34.4043 -34.4016 -34.3978 -34.3916 -34.3898 -34.3872 -34.3835
   -34.3798 -34.3774 -34.3725 -34.3708 -34.3637 -34.3572 -34.3564 -34.3552
   -34.3535 -34.3418 -34.3369 -34.3158 -34.3068 -34.2942 -34.2243 -34.2168
   -13.2963 -13.1514 -13.0121 -12.6497 -12.4313 -12.2424 -12.1609 -12.1139
   -12.0852 -12.0496 -12.0063 -11.9756 -11.8927 -11.8497 -11.8110 -11.7701
   -11.7513 -11.6865 -11.6422 -11.6233 -11.6083 -11.5818 -11.5676 -11.5467
   -11.5067 -11.5007 -11.4737 -11.4221 -11.4087 -11.3772 -11.3301  -4.9614
    -4.8878  -4.8804  -4.7949  -4.7835  -4.7544  -4.7128  -4.6825  -4.6411
    -4.6262  -4.6033  -4.5554  -4.5014  -4.4855  -4.4127  -4.3635  -4.3492
    -4.2729  -4.2541  -4.1017  -4.0535  -3.9679  -3.8757  -3.7800  -3.6585
    -3.5749  -3.4198  -3.4071  -3.3831  -3.3533  -3.3405  -3.3238  -3.3086
    -3.2956  -3.2797  -3.2667  -3.2323  -3.2276  -3.1414  -3.1010  -3.0031
    -2.9151  -2.8190  -2.7429  -2.6956  -2.6583  -2.6275  -2.5979  -2.5772
    -2.5481  -2.5132  -2.4987  -2.4795  -2.4514  -2.4267  -2.3951  -2.3787
    -2.2997  -2.2571  -2.1587  -2.0332  -1.9999  -1.8648  -1.8147  -1.7709
    -1.6947  -1.6716  -1.6032  -1.5004  -1.4802  -1.4474  -1.3940  -1.3608
    -1.3537  -1.3393  -1.3056  -1.2616  -1.2210  -1.2102  -1.1624  -1.1230
    -1.0871  -1.0305  -0.9939  -0.9684  -0.8914  -0.7974  -0.7611  -0.6914
    -0.5740  -0.5501  -0.4544  -0.4355  -0.3286  -0.3021  -0.2610  -0.2410
    -0.2207  -0.1899  -0.1093  -0.0940  -0.0563   0.1093   0.1473   0.2160
     0.2872   0.3587   0.4442   0.4649   0.5773   1.7313   1.7802   2.2819
     2.5271   2.5364   2.5980   2.6271   2.6671   2.6849   2.7086   2.7226
     2.7622   2.7884   2.7975   2.8292   2.8890   2.9546   2.9836   3.0018
     3.0244   3.0415   3.0593   3.0730   3.0848   3.1047   3.1115   3.1249
     3.1560   3.1676   3.1937   3.2389   3.3025   3.3444   3.4119   3.4487
     3.5313   3.5843   3.6742   3.7151   3.7549   3.7655

     occupation numbers 
     1.0000   1.0000   1.0000   1.0000   1.0000   1.0000   1.0000   1.0000
     1.0000   1.0000   1.0000   1.0000   1.0000   1.0000   1.0000   1.0000
     1.0000   1.0000   1.0000   1.0000   1.0000   1.0000   1.0000   1.0000
     1.0000   1.0000   1.0000   1.0000   1.0000   1.0000   1.0000   1.0000
     1.0000   1.0000   1.0000   1.0000   1.0000   1.0000   1.0000   1.0000
     1.0000   1.0000   1.0000   1.0000   1.0000   1.0000   1.0000   1.0000
     1.0000   1.0000   1.0000   1.0000   1.0000   1.0000   1.0000   1.0000
     1.0000   1.0000   1.0000   1.0000   1.0000   1.0000   1.0000   1.0000
     1.0000   1.0000   1.0000   1.0000   1.0000   1.0000   1.0000   1.0000
     1.0000   1.0000   1.0000   1.0000   1.0000   1.0000   1.0000   1.0000
     1.0000   1.0000   1.0000   1.0000   1.0000   1.0000   1.0000   1.0000
     1.0000   1.0000   1.0000   1.0000   1.0000   1.0000   1.0000   1.0000
     1.0000   1.0000   1.0000   1.0000   1.0000   1.0000   1.0000   1.0000
     1.0000   1.0000   1.0000   1.0000   1.0000   1.0000   1.0000   1.0000
     1.0000   1.0000   1.0000   1.0000   1.0000   1.0000   1.0000   1.0000
     1.0000   1.0000   1.0000   1.0000   1.0000   1.0000   1.0000   1.0000
     1.0000   1.0000   1.0000   1.0000   1.0000   1.0000   1.0000   1.0000
     1.0000   1.0000   1.0000   1.0000   1.0000   1.0000   1.0000   1.0000
     1.0000   1.0000   1.0000   1.0000   1.0000   1.0000   1.0000   1.0000
     1.0000   1.0000   1.0000   1.0000   1.0000   1.0000   1.0000   1.0000
     1.0000   1.0000   1.0000   1.0000   1.0000   1.0000   1.0000   1.0000
     1.0000   1.0000   1.0000   1.0000   1.0000   1.0000   1.0000   1.0000
     1.0000   1.0000   1.0000   1.0000   1.0000   1.0000   1.0000   1.0000
     1.0000   1.0000   1.0000   1.0000   1.0000   1.0000   1.0000   1.0000
     1.0000   1.0000   1.0000   1.0000   1.0000   1.0000   1.0000   1.0000
     1.0000   1.0000   1.0000   1.0000   0.9998   0.0002   0.0001   0.0000
     0.0000   0.0000   0.0000   0.0000   0.0000   0.0000   0.0000   0.0000
     0.0000   0.0000   0.0000   0.0000   0.0000   0.0000   0.0000   0.0000
     0.0000   0.0000   0.0000   0.0000   0.0000   0.0000   0.0000   0.0000
     0.0000   0.0000   0.0000   0.0000   0.0000   0.0000   0.0000   0.0000
     0.0000   0.0000   0.0000   0.0000   0.0000   0.0000

          k = 0.3333 0.5774 0.0000 (126429 PWs)   bands (ev):

   -60.3621 -60.3576 -60.3561 -60.3442 -60.3386 -60.3378 -60.3315 -60.3094
   -60.3091 -60.3075 -60.3007 -60.3006 -60.2959 -60.2913 -60.2756 -60.2754
   -34.6410 -34.6289 -34.6168 -34.6038 -34.5970 -34.5932 -34.5825 -34.5618
   -34.5564 -34.5249 -34.5222 -34.5036 -34.4712 -34.4682 -34.4588 -34.4565
   -34.4558 -34.4411 -34.4324 -34.4280 -34.4262 -34.4244 -34.4230 -34.4218
   -34.4073 -34.4038 -34.3978 -34.3917 -34.3914 -34.3875 -34.3875 -34.3829
   -34.3777 -34.3760 -34.3719 -34.3639 -34.3614 -34.3589 -34.3578 -34.3559
   -34.3550 -34.3438 -34.3319 -34.3239 -34.3068 -34.2950 -34.2249 -34.2174
   -13.2024 -13.1915 -13.1275 -12.4789 -12.4739 -12.3885 -12.0804 -12.0575
   -12.0513 -11.9921 -11.9860 -11.9627 -11.9545 -11.9528 -11.8341 -11.7854
   -11.7760 -11.7224 -11.6013 -11.5938 -11.5651 -11.5635 -11.5618 -11.5575
   -11.5533 -11.5371 -11.4689 -11.3986 -11.3940 -11.3909 -11.3218  -4.8515
    -4.7966  -4.7942  -4.7831  -4.7789  -4.7648  -4.7576  -4.7565  -4.6888
    -4.6853  -4.6741  -4.6081  -4.5952  -4.4886  -4.4384  -4.3671  -4.3161
    -4.2643  -4.2592  -3.9483  -3.9327  -3.8701  -3.8524  -3.8512  -3.7573
    -3.6948  -3.4440  -3.3693  -3.3666  -3.3642  -3.3526  -3.3266  -3.3020
    -3.2945  -3.2862  -3.2828  -3.2424  -3.1787  -3.1785  -3.0433  -3.0209
    -2.9563  -2.8151  -2.7350  -2.6342  -2.6218  -2.6005  -2.5905  -2.5783
    -2.5714  -2.5590  -2.5358  -2.5174  -2.5171  -2.5133  -2.4546  -2.3832
    -2.1671  -2.1641  -2.0517  -2.0196  -2.0150  -1.7967  -1.7756  -1.7447
    -1.7368  -1.6822  -1.5937  -1.5385  -1.5056  -1.4940  -1.4767  -1.4219
    -1.3353  -1.3059  -1.2665  -1.2214  -1.1816  -1.0800  -1.0775  -1.0699
    -1.0633  -1.0553  -1.0524  -1.0513  -1.0400  -1.0253  -0.7704  -0.6608
    -0.5581  -0.4856  -0.4496  -0.4057  -0.2805  -0.2429  -0.2428  -0.2217
    -0.2132  -0.2049  -0.1809  -0.1638  -0.1220   0.1645   0.1734   0.2504
     0.3377   0.3818   0.4254   0.5133   0.5495   1.7230   1.7940   2.2159
     2.4956   2.5752   2.5822   2.6386   2.6544   2.6597   2.6992   2.7272
     2.7417   2.7900   2.7940   2.8164   2.9575   2.9648   2.9909   2.9971
     3.0396   3.0449   3.0470   3.0636   3.0679   3.0704   3.0779   3.1105
     3.1350   3.1468   3.1834   3.2122   3.2502   3.2923   3.3723   3.5499
     3.5564   3.6596   3.6775   3.6842   3.7696   3.8107

     occupation numbers 
     1.0000   1.0000   1.0000   1.0000   1.0000   1.0000   1.0000   1.0000
     1.0000   1.0000   1.0000   1.0000   1.0000   1.0000   1.0000   1.0000
     1.0000   1.0000   1.0000   1.0000   1.0000   1.0000   1.0000   1.0000
     1.0000   1.0000   1.0000   1.0000   1.0000   1.0000   1.0000   1.0000
     1.0000   1.0000   1.0000   1.0000   1.0000   1.0000   1.0000   1.0000
     1.0000   1.0000   1.0000   1.0000   1.0000   1.0000   1.0000   1.0000
     1.0000   1.0000   1.0000   1.0000   1.0000   1.0000   1.0000   1.0000
     1.0000   1.0000   1.0000   1.0000   1.0000   1.0000   1.0000   1.0000
     1.0000   1.0000   1.0000   1.0000   1.0000   1.0000   1.0000   1.0000
     1.0000   1.0000   1.0000   1.0000   1.0000   1.0000   1.0000   1.0000
     1.0000   1.0000   1.0000   1.0000   1.0000   1.0000   1.0000   1.0000
     1.0000   1.0000   1.0000   1.0000   1.0000   1.0000   1.0000   1.0000
     1.0000   1.0000   1.0000   1.0000   1.0000   1.0000   1.0000   1.0000
     1.0000   1.0000   1.0000   1.0000   1.0000   1.0000   1.0000   1.0000
     1.0000   1.0000   1.0000   1.0000   1.0000   1.0000   1.0000   1.0000
     1.0000   1.0000   1.0000   1.0000   1.0000   1.0000   1.0000   1.0000
     1.0000   1.0000   1.0000   1.0000   1.0000   1.0000   1.0000   1.0000
     1.0000   1.0000   1.0000   1.0000   1.0000   1.0000   1.0000   1.0000
     1.0000   1.0000   1.0000   1.0000   1.0000   1.0000   1.0000   1.0000
     1.0000   1.0000   1.0000   1.0000   1.0000   1.0000   1.0000   1.0000
     1.0000   1.0000   1.0000   1.0000   1.0000   1.0000   1.0000   1.0000
     1.0000   1.0000   1.0000   1.0000   1.0000   1.0000   1.0000   1.0000
     1.0000   1.0000   1.0000   1.0000   1.0000   1.0000   1.0000   1.0000
     1.0000   1.0000   1.0000   1.0000   1.0000   1.0000   1.0000   1.0000
     1.0000   1.0000   1.0000   1.0000   1.0000   1.0000   1.0000   1.0000
     1.0000   1.0000   1.0000   0.9999   0.9999   0.0003   0.0001   0.0000
     0.0000   0.0000   0.0000   0.0000   0.0000   0.0000   0.0000   0.0000
     0.0000   0.0000   0.0000   0.0000   0.0000   0.0000   0.0000   0.0000
     0.0000   0.0000   0.0000   0.0000   0.0000   0.0000   0.0000   0.0000
     0.0000   0.0000   0.0000   0.0000   0.0000   0.0000   0.0000   0.0000
     0.0000   0.0000   0.0000   0.0000   0.0000   0.0000

 ------ SPIN DOWN ----------


          k = 0.0000 0.0000 0.0000 (126355 PWs)   bands (ev):

   -60.3634 -60.3560 -60.3559 -60.3448 -60.3379 -60.3378 -60.3322 -60.3096
   -60.3095 -60.3076 -60.3000 -60.2999 -60.2965 -60.2915 -60.2755 -60.2754
   -34.6615 -34.6615 -34.6172 -34.5969 -34.5894 -34.5894 -34.5648 -34.5648
   -34.5255 -34.4864 -34.4753 -34.4745 -34.4744 -34.4724 -34.4724 -34.4521
   -34.4521 -34.4506 -34.4481 -34.4392 -34.4353 -34.4322 -34.4322 -34.4294
   -34.4294 -34.4051 -34.4050 -34.4005 -34.4004 -34.3972 -34.3863 -34.3863
   -34.3856 -34.3853 -34.3773 -34.3772 -34.3672 -34.3671 -34.3563 -34.3561
   -34.3373 -34.3373 -34.3346 -34.3059 -34.2934 -34.2934 -34.2153 -34.2151
   -13.4635 -12.7102 -12.7101 -12.6861 -12.6726 -12.6726 -12.5511 -12.1697
   -11.8947 -11.8947 -11.8474 -11.8459 -11.8459 -11.8117 -11.7195 -11.7195
   -11.7095 -11.7094 -11.6942 -11.6754 -11.6753 -11.6682 -11.5587 -11.4798
   -11.4798 -11.4567 -11.4567 -11.4395 -11.4394 -11.4354 -11.4272  -5.2006
    -5.0979  -5.0979  -4.9847  -4.5273  -4.5248  -4.5248  -4.4949  -4.4743
    -4.4743  -4.4265  -4.4096  -4.4096  -4.3878  -4.3878  -4.3674  -4.3120
    -4.3120  -4.2856  -4.2646  -4.2347  -4.2347  -4.1430  -3.9423  -3.9423
    -3.4818  -3.4818  -3.4374  -3.3175  -3.2613  -3.2495  -3.2495  -3.1809
    -3.1809  -3.0898  -3.0509  -3.0407  -3.0407  -3.0322  -3.0321  -2.9946
    -2.9730  -2.9730  -2.8490  -2.8490  -2.7261  -2.6699  -2.6699  -2.6398
    -2.6139  -2.6139  -2.5888  -2.4512  -2.4424  -2.4424  -2.3215  -2.3215
    -2.2968  -2.2455  -2.1603  -2.1603  -2.0314  -2.0314  -1.9350  -1.9223
    -1.9223  -1.9039  -1.6022  -1.6022  -1.2946  -1.2904  -1.2904  -1.2868
    -1.2729  -1.2729  -1.1844  -1.1590  -1.1077  -1.1077  -1.0602  -1.0601
    -1.0350  -1.0016  -1.0016  -0.9172  -0.8486  -0.8486  -0.7947  -0.7401
    -0.7401  -0.5405  -0.5405  -0.4561  -0.2447  -0.1677  -0.1677  -0.1353
    -0.1228  -0.1199  -0.1199  -0.0463  -0.0463  -0.0032  -0.0032   0.0254
     0.0366   0.0774   0.0775   0.4359   0.6833   1.7419   1.7419   2.6690
     2.6853   2.6919   2.6919   2.7268   2.7268   2.7366   2.7466   2.7466
     2.7720   2.7720   2.8076   2.8146   2.8147   2.8649   2.9130   2.9220
     2.9220   2.9759   3.1583   3.1583   3.2737   3.2935   3.2935   3.3256
     3.3256   3.3435   3.3550   3.3550   3.3860   3.4184   3.4184   3.4550
     3.4550   3.4613   3.5095   3.5095   3.5953   3.6600

     occupation numbers 
     1.0000   1.0000   1.0000   1.0000   1.0000   1.0000   1.0000   1.0000
     1.0000   1.0000   1.0000   1.0000   1.0000   1.0000   1.0000   1.0000
     1.0000   1.0000   1.0000   1.0000   1.0000   1.0000   1.0000   1.0000
     1.0000   1.0000   1.0000   1.0000   1.0000   1.0000   1.0000   1.0000
     1.0000   1.0000   1.0000   1.0000   1.0000   1.0000   1.0000   1.0000
     1.0000   1.0000   1.0000   1.0000   1.0000   1.0000   1.0000   1.0000
     1.0000   1.0000   1.0000   1.0000   1.0000   1.0000   1.0000   1.0000
     1.0000   1.0000   1.0000   1.0000   1.0000   1.0000   1.0000   1.0000
     1.0000   1.0000   1.0000   1.0000   1.0000   1.0000   1.0000   1.0000
     1.0000   1.0000   1.0000   1.0000   1.0000   1.0000   1.0000   1.0000
     1.0000   1.0000   1.0000   1.0000   1.0000   1.0000   1.0000   1.0000
     1.0000   1.0000   1.0000   1.0000   1.0000   1.0000   1.0000   1.0000
     1.0000   1.0000   1.0000   1.0000   1.0000   1.0000   1.0000   1.0000
     1.0000   1.0000   1.0000   1.0000   1.0000   1.0000   1.0000   1.0000
     1.0000   1.0000   1.0000   1.0000   1.0000   1.0000   1.0000   1.0000
     1.0000   1.0000   1.0000   1.0000   1.0000   1.0000   1.0000   1.0000
     1.0000   1.0000   1.0000   1.0000   1.0000   1.0000   1.0000   1.0000
     1.0000   1.0000   1.0000   1.0000   1.0000   1.0000   1.0000   1.0000
     1.0000   1.0000   1.0000   1.0000   1.0000   1.0000   1.0000   1.0000
     1.0000   1.0000   1.0000   1.0000   1.0000   1.0000   1.0000   1.0000
     1.0000   1.0000   1.0000   1.0000   1.0000   1.0000   1.0000   1.0000
     1.0000   1.0000   1.0000   1.0000   1.0000   1.0000   1.0000   1.0000
     1.0000   1.0000   1.0000   1.0000   1.0000   1.0000   1.0000   1.0000
     1.0000   1.0000   1.0000   1.0000   1.0000   1.0000   1.0000   1.0000
     1.0000   1.0000   1.0000   1.0000   1.0000   1.0000   1.0000   1.0000
     1.0000   1.0000   1.0000   1.0000   0.9992   0.0002   0.0002   0.0000
     0.0000   0.0000   0.0000   0.0000   0.0000   0.0000   0.0000   0.0000
     0.0000   0.0000   0.0000   0.0000   0.0000   0.0000   0.0000   0.0000
     0.0000   0.0000   0.0000   0.0000   0.0000   0.0000   0.0000   0.0000
     0.0000   0.0000   0.0000   0.0000   0.0000   0.0000   0.0000   0.0000
     0.0000   0.0000   0.0000   0.0000   0.0000   0.0000

          k = 0.0000 0.1925 0.0000 (126305 PWs)   bands (ev):

   -60.3631 -60.3563 -60.3559 -60.3446 -60.3380 -60.3378 -60.3320 -60.3095
   -60.3095 -60.3076 -60.3002 -60.3000 -60.2963 -60.2915 -60.2755 -60.2754
   -34.6587 -34.6566 -34.6138 -34.5995 -34.5914 -34.5887 -34.5693 -34.5616
   -34.5323 -34.5084 -34.4916 -34.4832 -34.4749 -34.4679 -34.4560 -34.4539
   -34.4524 -34.4442 -34.4439 -34.4397 -34.4350 -34.4291 -34.4282 -34.4241
   -34.4210 -34.4053 -34.4053 -34.4032 -34.3970 -34.3949 -34.3876 -34.3873
   -34.3851 -34.3779 -34.3775 -34.3730 -34.3679 -34.3672 -34.3562 -34.3561
   -34.3415 -34.3399 -34.3343 -34.3062 -34.2970 -34.2936 -34.2175 -34.2155
   -13.4388 -12.8938 -12.7912 -12.7477 -12.5585 -12.5123 -12.4247 -12.1599
   -11.9502 -11.9176 -11.8865 -11.8620 -11.8454 -11.8112 -11.7858 -11.7626
   -11.7165 -11.7086 -11.6812 -11.6776 -11.6248 -11.5799 -11.5470 -11.5179
   -11.4997 -11.4823 -11.4673 -11.4452 -11.4379 -11.4034 -11.3839  -5.1634
    -5.0645  -5.0638  -4.9552  -4.5842  -4.5503  -4.5487  -4.5338  -4.5196
    -4.4891  -4.4694  -4.4410  -4.4282  -4.4220  -4.4060  -4.3881  -4.3880
    -4.3005  -4.2677  -4.2509  -4.1636  -4.0950  -4.0863  -3.9109  -3.8893
    -3.4687  -3.4682  -3.4186  -3.3331  -3.3030  -3.2764  -3.2746  -3.1921
    -3.1631  -3.1604  -3.1300  -3.1079  -3.0985  -3.0842  -3.0765  -3.0088
    -3.0040  -2.8985  -2.7596  -2.7525  -2.6922  -2.6769  -2.6441  -2.6417
    -2.5939  -2.5875  -2.5609  -2.5559  -2.5412  -2.3936  -2.2976  -2.2927
    -2.1616  -2.1513  -2.1128  -2.0988  -2.0642  -2.0158  -1.9989  -1.9728
    -1.9264  -1.8008  -1.6350  -1.5982  -1.4350  -1.4128  -1.3173  -1.2943
    -1.2472  -1.2421  -1.2238  -1.2091  -1.1492  -1.1460  -1.0689  -1.0624
    -1.0200  -0.9642  -0.9117  -0.9040  -0.8229  -0.8005  -0.7503  -0.6735
    -0.6630  -0.6119  -0.6032  -0.5136  -0.3294  -0.2623  -0.2276  -0.1562
    -0.1313  -0.1259  -0.0507  -0.0373  -0.0302   0.0136   0.0142   0.0361
     0.1122   0.1857   0.1909   0.4408   0.6669   1.7419   1.7471   2.5696
     2.5841   2.6820   2.6896   2.7119   2.7179   2.7226   2.7314   2.7581
     2.7625   2.7864   2.7936   2.8261   2.8301   2.8658   2.8938   2.9649
     2.9714   3.0049   3.1112   3.1171   3.1877   3.2227   3.2408   3.2533
     3.2827   3.2894   3.3209   3.3426   3.3685   3.3803   3.4201   3.4371
     3.5147   3.5342   3.6081   3.6275   3.6438   3.6439

     occupation numbers 
     1.0000   1.0000   1.0000   1.0000   1.0000   1.0000   1.0000   1.0000
     1.0000   1.0000   1.0000   1.0000   1.0000   1.0000   1.0000   1.0000
     1.0000   1.0000   1.0000   1.0000   1.0000   1.0000   1.0000   1.0000
     1.0000   1.0000   1.0000   1.0000   1.0000   1.0000   1.0000   1.0000
     1.0000   1.0000   1.0000   1.0000   1.0000   1.0000   1.0000   1.0000
     1.0000   1.0000   1.0000   1.0000   1.0000   1.0000   1.0000   1.0000
     1.0000   1.0000   1.0000   1.0000   1.0000   1.0000   1.0000   1.0000
     1.0000   1.0000   1.0000   1.0000   1.0000   1.0000   1.0000   1.0000
     1.0000   1.0000   1.0000   1.0000   1.0000   1.0000   1.0000   1.0000
     1.0000   1.0000   1.0000   1.0000   1.0000   1.0000   1.0000   1.0000
     1.0000   1.0000   1.0000   1.0000   1.0000   1.0000   1.0000   1.0000
     1.0000   1.0000   1.0000   1.0000   1.0000   1.0000   1.0000   1.0000
     1.0000   1.0000   1.0000   1.0000   1.0000   1.0000   1.0000   1.0000
     1.0000   1.0000   1.0000   1.0000   1.0000   1.0000   1.0000   1.0000
     1.0000   1.0000   1.0000   1.0000   1.0000   1.0000   1.0000   1.0000
     1.0000   1.0000   1.0000   1.0000   1.0000   1.0000   1.0000   1.0000
     1.0000   1.0000   1.0000   1.0000   1.0000   1.0000   1.0000   1.0000
     1.0000   1.0000   1.0000   1.0000   1.0000   1.0000   1.0000   1.0000
     1.0000   1.0000   1.0000   1.0000   1.0000   1.0000   1.0000   1.0000
     1.0000   1.0000   1.0000   1.0000   1.0000   1.0000   1.0000   1.0000
     1.0000   1.0000   1.0000   1.0000   1.0000   1.0000   1.0000   1.0000
     1.0000   1.0000   1.0000   1.0000   1.0000   1.0000   1.0000   1.0000
     1.0000   1.0000   1.0000   1.0000   1.0000   1.0000   1.0000   1.0000
     1.0000   1.0000   1.0000   1.0000   1.0000   1.0000   1.0000   1.0000
     1.0000   1.0000   1.0000   1.0000   1.0000   1.0000   1.0000   1.0000
     1.0000   1.0000   1.0000   1.0000   0.9994   0.0002   0.0002   0.0000
     0.0000   0.0000   0.0000   0.0000   0.0000   0.0000   0.0000   0.0000
     0.0000   0.0000   0.0000   0.0000   0.0000   0.0000   0.0000   0.0000
     0.0000   0.0000   0.0000   0.0000   0.0000   0.0000   0.0000   0.0000
     0.0000   0.0000   0.0000   0.0000   0.0000   0.0000   0.0000   0.0000
     0.0000   0.0000   0.0000   0.0000   0.0000   0.0000

          k = 0.0000 0.3849 0.0000 (126328 PWs)   bands (ev):

   -60.3626 -60.3571 -60.3560 -60.3444 -60.3384 -60.3378 -60.3318 -60.3094
   -60.3093 -60.3075 -60.3005 -60.3003 -60.2961 -60.2914 -60.2756 -60.2754
   -34.6514 -34.6431 -34.6101 -34.6064 -34.5950 -34.5906 -34.5714 -34.5539
   -34.5488 -34.5335 -34.5100 -34.4847 -34.4758 -34.4731 -34.4586 -34.4562
   -34.4528 -34.4420 -34.4335 -34.4311 -34.4307 -34.4276 -34.4260 -34.4122
   -34.4081 -34.4057 -34.4041 -34.3970 -34.3919 -34.3909 -34.3888 -34.3853
   -34.3829 -34.3778 -34.3765 -34.3763 -34.3663 -34.3567 -34.3561 -34.3524
   -34.3498 -34.3452 -34.3358 -34.3073 -34.3069 -34.2935 -34.2223 -34.2161
   -13.3662 -13.0840 -12.8513 -12.7989 -12.4013 -12.3668 -12.2137 -12.1318
   -12.0436 -12.0367 -11.9913 -11.9348 -11.8966 -11.8250 -11.7523 -11.7375
   -11.7054 -11.6828 -11.6815 -11.6691 -11.6308 -11.5936 -11.5608 -11.5212
   -11.5007 -11.4769 -11.4644 -11.4457 -11.4383 -11.3734 -11.3476  -5.0581
    -4.9707  -4.9673  -4.8703  -4.7242  -4.6762  -4.6593  -4.6166  -4.6069
    -4.5747  -4.5091  -4.4999  -4.4389  -4.4229  -4.4068  -4.3627  -4.3547
    -4.3072  -4.2481  -4.2263  -4.1698  -4.0311  -3.9359  -3.7422  -3.7119
    -3.5325  -3.4303  -3.4276  -3.3751  -3.3302  -3.3088  -3.3071  -3.2875
    -3.2623  -3.2455  -3.2383  -3.2010  -3.1547  -3.1518  -3.1250  -3.0073
    -2.9342  -2.7977  -2.6949  -2.6827  -2.6539  -2.6369  -2.6271  -2.6267
    -2.5981  -2.5612  -2.5430  -2.4815  -2.4403  -2.4110  -2.3806  -2.3251
    -2.3085  -2.2394  -2.1084  -2.0832  -2.0147  -1.9376  -1.8527  -1.7591
    -1.7490  -1.6843  -1.6789  -1.5772  -1.5748  -1.4686  -1.3840  -1.3649
    -1.3191  -1.3113  -1.2281  -1.2214  -1.1727  -1.1661  -1.1367  -1.1240
    -1.0136  -1.0044  -0.9508  -0.9076  -0.8182  -0.7883  -0.7485  -0.6811
    -0.6186  -0.6059  -0.5018  -0.4650  -0.3845  -0.3111  -0.2702  -0.2341
    -0.2000  -0.1953  -0.0092   0.0058   0.0178   0.0391   0.0516   0.0661
     0.2930   0.3212   0.3299   0.4546   0.6181   1.7418   1.7606   2.4269
     2.4571   2.6065   2.6342   2.6568   2.6880   2.6954   2.7197   2.7404
     2.7580   2.7738   2.8040   2.8429   2.8728   2.8996   2.9323   2.9962
     3.0082   3.0443   3.0645   3.0954   3.1032   3.1217   3.1479   3.1759
     3.2020   3.2525   3.2725   3.3015   3.3422   3.3516   3.3703   3.4666
     3.5103   3.5354   3.5805   3.6567   3.7405   3.7438

     occupation numbers 
     1.0000   1.0000   1.0000   1.0000   1.0000   1.0000   1.0000   1.0000
     1.0000   1.0000   1.0000   1.0000   1.0000   1.0000   1.0000   1.0000
     1.0000   1.0000   1.0000   1.0000   1.0000   1.0000   1.0000   1.0000
     1.0000   1.0000   1.0000   1.0000   1.0000   1.0000   1.0000   1.0000
     1.0000   1.0000   1.0000   1.0000   1.0000   1.0000   1.0000   1.0000
     1.0000   1.0000   1.0000   1.0000   1.0000   1.0000   1.0000   1.0000
     1.0000   1.0000   1.0000   1.0000   1.0000   1.0000   1.0000   1.0000
     1.0000   1.0000   1.0000   1.0000   1.0000   1.0000   1.0000   1.0000
     1.0000   1.0000   1.0000   1.0000   1.0000   1.0000   1.0000   1.0000
     1.0000   1.0000   1.0000   1.0000   1.0000   1.0000   1.0000   1.0000
     1.0000   1.0000   1.0000   1.0000   1.0000   1.0000   1.0000   1.0000
     1.0000   1.0000   1.0000   1.0000   1.0000   1.0000   1.0000   1.0000
     1.0000   1.0000   1.0000   1.0000   1.0000   1.0000   1.0000   1.0000
     1.0000   1.0000   1.0000   1.0000   1.0000   1.0000   1.0000   1.0000
     1.0000   1.0000   1.0000   1.0000   1.0000   1.0000   1.0000   1.0000
     1.0000   1.0000   1.0000   1.0000   1.0000   1.0000   1.0000   1.0000
     1.0000   1.0000   1.0000   1.0000   1.0000   1.0000   1.0000   1.0000
     1.0000   1.0000   1.0000   1.0000   1.0000   1.0000   1.0000   1.0000
     1.0000   1.0000   1.0000   1.0000   1.0000   1.0000   1.0000   1.0000
     1.0000   1.0000   1.0000   1.0000   1.0000   1.0000   1.0000   1.0000
     1.0000   1.0000   1.0000   1.0000   1.0000   1.0000   1.0000   1.0000
     1.0000   1.0000   1.0000   1.0000   1.0000   1.0000   1.0000   1.0000
     1.0000   1.0000   1.0000   1.0000   1.0000   1.0000   1.0000   1.0000
     1.0000   1.0000   1.0000   1.0000   1.0000   1.0000   1.0000   1.0000
     1.0000   1.0000   1.0000   1.0000   1.0000   1.0000   1.0000   1.0000
     1.0000   1.0000   1.0000   1.0000   0.9997   0.0002   0.0002   0.0000
     0.0000   0.0000   0.0000   0.0000   0.0000   0.0000   0.0000   0.0000
     0.0000   0.0000   0.0000   0.0000   0.0000   0.0000   0.0000   0.0000
     0.0000   0.0000   0.0000   0.0000   0.0000   0.0000   0.0000   0.0000
     0.0000   0.0000   0.0000   0.0000   0.0000   0.0000   0.0000   0.0000
     0.0000   0.0000   0.0000   0.0000   0.0000   0.0000

          k = 0.0000-0.5774 0.0000 (126288 PWs)   bands (ev):

   -60.3623 -60.3575 -60.3560 -60.3442 -60.3386 -60.3377 -60.3316 -60.3094
   -60.3092 -60.3075 -60.3007 -60.3004 -60.2960 -60.2913 -60.2756 -60.2754
   -34.6460 -34.6289 -34.6176 -34.6143 -34.5938 -34.5896 -34.5692 -34.5579
   -34.5480 -34.5457 -34.5198 -34.4809 -34.4799 -34.4720 -34.4654 -34.4595
   -34.4530 -34.4428 -34.4326 -34.4275 -34.4253 -34.4217 -34.4213 -34.4076
   -34.4055 -34.4052 -34.3986 -34.3966 -34.3965 -34.3905 -34.3896 -34.3890
   -34.3815 -34.3774 -34.3687 -34.3676 -34.3672 -34.3582 -34.3565 -34.3551
   -34.3550 -34.3377 -34.3369 -34.3159 -34.3081 -34.2932 -34.2248 -34.2164
   -13.2685 -13.2219 -12.8717 -12.8172 -12.2459 -12.2291 -12.2224 -12.1580
   -12.0967 -12.0768 -12.0175 -11.9530 -11.9431 -11.9007 -11.7091 -11.7050
   -11.6996 -11.6745 -11.6660 -11.6639 -11.6582 -11.6023 -11.5962 -11.5505
   -11.4796 -11.4614 -11.4579 -11.4427 -11.4384 -11.3624 -11.3347  -4.9249
    -4.8776  -4.8669  -4.8475  -4.7885  -4.7842  -4.7603  -4.7101  -4.6596
    -4.6574  -4.4948  -4.4936  -4.4514  -4.4369  -4.4132  -4.3423  -4.3285
    -4.2981  -4.2452  -4.2295  -4.1440  -4.0345  -3.8109  -3.7347  -3.5668
    -3.5074  -3.4373  -3.4367  -3.3823  -3.3711  -3.3629  -3.3339  -3.3317
    -3.3056  -3.2948  -3.2807  -3.2396  -3.1973  -3.1733  -3.1291  -2.9908
    -2.9558  -2.6688  -2.6593  -2.6332  -2.6300  -2.6012  -2.5874  -2.5719
    -2.5644  -2.5576  -2.5514  -2.5266  -2.5190  -2.4292  -2.4288  -2.3924
    -2.3587  -2.2306  -2.1077  -2.0373  -2.0220  -1.9290  -1.8558  -1.8284
    -1.6920  -1.5080  -1.4955  -1.4375  -1.4056  -1.4014  -1.3964  -1.3738
    -1.3602  -1.3528  -1.3286  -1.3156  -1.2901  -1.2143  -1.1908  -1.1727
    -1.1654  -1.1644  -0.9595  -0.9296  -0.8083  -0.7244  -0.7029  -0.6548
    -0.6355  -0.5986  -0.4403  -0.4146  -0.3565  -0.3162  -0.2954  -0.2702
    -0.2509  -0.2231   0.0035   0.0313   0.0322   0.0497   0.0695   0.0790
     0.3722   0.3800   0.4036   0.4681   0.5708   1.7413   1.7692   2.3630
     2.4023   2.5686   2.5978   2.6101   2.6591   2.6835   2.7167   2.7413
     2.7607   2.7702   2.8059   2.8359   2.8853   2.9955   3.0037   3.0195
     3.0250   3.0417   3.0455   3.0573   3.0617   3.0752   3.0770   3.1309
     3.1451   3.2034   3.2987   3.3026   3.3260   3.3268   3.3446   3.4973
     3.5190   3.5311   3.6210   3.6623   3.6818   3.7451

     occupation numbers 
     1.0000   1.0000   1.0000   1.0000   1.0000   1.0000   1.0000   1.0000
     1.0000   1.0000   1.0000   1.0000   1.0000   1.0000   1.0000   1.0000
     1.0000   1.0000   1.0000   1.0000   1.0000   1.0000   1.0000   1.0000
     1.0000   1.0000   1.0000   1.0000   1.0000   1.0000   1.0000   1.0000
     1.0000   1.0000   1.0000   1.0000   1.0000   1.0000   1.0000   1.0000
     1.0000   1.0000   1.0000   1.0000   1.0000   1.0000   1.0000   1.0000
     1.0000   1.0000   1.0000   1.0000   1.0000   1.0000   1.0000   1.0000
     1.0000   1.0000   1.0000   1.0000   1.0000   1.0000   1.0000   1.0000
     1.0000   1.0000   1.0000   1.0000   1.0000   1.0000   1.0000   1.0000
     1.0000   1.0000   1.0000   1.0000   1.0000   1.0000   1.0000   1.0000
     1.0000   1.0000   1.0000   1.0000   1.0000   1.0000   1.0000   1.0000
     1.0000   1.0000   1.0000   1.0000   1.0000   1.0000   1.0000   1.0000
     1.0000   1.0000   1.0000   1.0000   1.0000   1.0000   1.0000   1.0000
     1.0000   1.0000   1.0000   1.0000   1.0000   1.0000   1.0000   1.0000
     1.0000   1.0000   1.0000   1.0000   1.0000   1.0000   1.0000   1.0000
     1.0000   1.0000   1.0000   1.0000   1.0000   1.0000   1.0000   1.0000
     1.0000   1.0000   1.0000   1.0000   1.0000   1.0000   1.0000   1.0000
     1.0000   1.0000   1.0000   1.0000   1.0000   1.0000   1.0000   1.0000
     1.0000   1.0000   1.0000   1.0000   1.0000   1.0000   1.0000   1.0000
     1.0000   1.0000   1.0000   1.0000   1.0000   1.0000   1.0000   1.0000
     1.0000   1.0000   1.0000   1.0000   1.0000   1.0000   1.0000   1.0000
     1.0000   1.0000   1.0000   1.0000   1.0000   1.0000   1.0000   1.0000
     1.0000   1.0000   1.0000   1.0000   1.0000   1.0000   1.0000   1.0000
     1.0000   1.0000   1.0000   1.0000   1.0000   1.0000   1.0000   1.0000
     1.0000   1.0000   1.0000   1.0000   1.0000   1.0000   1.0000   1.0000
     1.0000   1.0000   1.0000   1.0000   0.9998   0.0002   0.0001   0.0000
     0.0000   0.0000   0.0000   0.0000   0.0000   0.0000   0.0000   0.0000
     0.0000   0.0000   0.0000   0.0000   0.0000   0.0000   0.0000   0.0000
     0.0000   0.0000   0.0000   0.0000   0.0000   0.0000   0.0000   0.0000
     0.0000   0.0000   0.0000   0.0000   0.0000   0.0000   0.0000   0.0000
     0.0000   0.0000   0.0000   0.0000   0.0000   0.0000

          k = 0.1667 0.2887 0.0000 (126343 PWs)   bands (ev):

   -60.3627 -60.3568 -60.3560 -60.3444 -60.3383 -60.3378 -60.3318 -60.3094
   -60.3093 -60.3076 -60.3004 -60.3002 -60.2961 -60.2914 -60.2756 -60.2754
   -34.6535 -34.6475 -34.6081 -34.6043 -34.5992 -34.5826 -34.5762 -34.5591
   -34.5406 -34.5287 -34.5010 -34.4941 -34.4736 -34.4659 -34.4564 -34.4549
   -34.4531 -34.4424 -34.4385 -34.4341 -34.4301 -34.4281 -34.4263 -34.4245
   -34.4066 -34.4048 -34.4025 -34.3968 -34.3940 -34.3906 -34.3879 -34.3868
   -34.3842 -34.3789 -34.3773 -34.3737 -34.3670 -34.3585 -34.3560 -34.3556
   -34.3470 -34.3441 -34.3357 -34.3077 -34.3026 -34.2940 -34.2209 -34.2160
   -13.3901 -12.9931 -12.9552 -12.6427 -12.5767 -12.3172 -12.2997 -12.1412
   -12.0386 -11.9861 -11.9696 -11.8636 -11.8522 -11.8286 -11.7975 -11.7653
   -11.7480 -11.7001 -11.6904 -11.6253 -11.6008 -11.5873 -11.5361 -11.5298
   -11.5035 -11.4945 -11.4884 -11.4468 -11.4059 -11.3976 -11.3514  -5.0918
    -5.0003  -4.9986  -4.8980  -4.6660  -4.6413  -4.6150  -4.5764  -4.5487
    -4.5419  -4.5216  -4.5082  -4.4887  -4.4479  -4.4410  -4.3866  -4.3601
    -4.2944  -4.2338  -4.1994  -4.0970  -4.0523  -3.9818  -3.8803  -3.7087
    -3.4493  -3.4466  -3.4374  -3.4150  -3.3549  -3.3260  -3.2880  -3.2689
    -3.2324  -3.2246  -3.1868  -3.1742  -3.1339  -3.1157  -3.0528  -2.9774
    -2.9359  -2.8891  -2.8213  -2.7772  -2.6913  -2.6663  -2.6235  -2.5997
    -2.5710  -2.5445  -2.5163  -2.4804  -2.3927  -2.3603  -2.3061  -2.2787
    -2.2584  -2.2348  -2.2133  -2.1448  -2.0547  -1.9578  -1.8708  -1.7777
    -1.7433  -1.7420  -1.6471  -1.6189  -1.5964  -1.4699  -1.3835  -1.3391
    -1.3122  -1.2583  -1.2396  -1.2289  -1.1985  -1.1330  -1.1008  -1.0518
    -0.9976  -0.9645  -0.9527  -0.9186  -0.8269  -0.7971  -0.7375  -0.6819
    -0.6224  -0.5913  -0.5462  -0.5260  -0.3527  -0.3395  -0.2288  -0.1970
    -0.1386  -0.1316  -0.1151  -0.0994  -0.0519   0.0650   0.1222   0.1523
     0.2121   0.2201   0.3427   0.4491   0.6339   1.7376   1.7613   2.4061
     2.5931   2.6061   2.6308   2.6678   2.6819   2.7089   2.7236   2.7441
     2.7671   2.7751   2.8094   2.8308   2.8578   2.8802   2.9249   2.9832
     3.0048   3.0416   3.0701   3.1018   3.1360   3.1528   3.1713   3.1795
     3.2171   3.2334   3.2935   3.3025   3.3035   3.3649   3.3814   3.4627
     3.5323   3.5517   3.6338   3.6843   3.7102   3.7229

     occupation numbers 
     1.0000   1.0000   1.0000   1.0000   1.0000   1.0000   1.0000   1.0000
     1.0000   1.0000   1.0000   1.0000   1.0000   1.0000   1.0000   1.0000
     1.0000   1.0000   1.0000   1.0000   1.0000   1.0000   1.0000   1.0000
     1.0000   1.0000   1.0000   1.0000   1.0000   1.0000   1.0000   1.0000
     1.0000   1.0000   1.0000   1.0000   1.0000   1.0000   1.0000   1.0000
     1.0000   1.0000   1.0000   1.0000   1.0000   1.0000   1.0000   1.0000
     1.0000   1.0000   1.0000   1.0000   1.0000   1.0000   1.0000   1.0000
     1.0000   1.0000   1.0000   1.0000   1.0000   1.0000   1.0000   1.0000
     1.0000   1.0000   1.0000   1.0000   1.0000   1.0000   1.0000   1.0000
     1.0000   1.0000   1.0000   1.0000   1.0000   1.0000   1.0000   1.0000
     1.0000   1.0000   1.0000   1.0000   1.0000   1.0000   1.0000   1.0000
     1.0000   1.0000   1.0000   1.0000   1.0000   1.0000   1.0000   1.0000
     1.0000   1.0000   1.0000   1.0000   1.0000   1.0000   1.0000   1.0000
     1.0000   1.0000   1.0000   1.0000   1.0000   1.0000   1.0000   1.0000
     1.0000   1.0000   1.0000   1.0000   1.0000   1.0000   1.0000   1.0000
     1.0000   1.0000   1.0000   1.0000   1.0000   1.0000   1.0000   1.0000
     1.0000   1.0000   1.0000   1.0000   1.0000   1.0000   1.0000   1.0000
     1.0000   1.0000   1.0000   1.0000   1.0000   1.0000   1.0000   1.0000
     1.0000   1.0000   1.0000   1.0000   1.0000   1.0000   1.0000   1.0000
     1.0000   1.0000   1.0000   1.0000   1.0000   1.0000   1.0000   1.0000
     1.0000   1.0000   1.0000   1.0000   1.0000   1.0000   1.0000   1.0000
     1.0000   1.0000   1.0000   1.0000   1.0000   1.0000   1.0000   1.0000
     1.0000   1.0000   1.0000   1.0000   1.0000   1.0000   1.0000   1.0000
     1.0000   1.0000   1.0000   1.0000   1.0000   1.0000   1.0000   1.0000
     1.0000   1.0000   1.0000   1.0000   1.0000   1.0000   1.0000   1.0000
     1.0000   1.0000   1.0000   1.0000   0.9996   0.0002   0.0002   0.0000
     0.0000   0.0000   0.0000   0.0000   0.0000   0.0000   0.0000   0.0000
     0.0000   0.0000   0.0000   0.0000   0.0000   0.0000   0.0000   0.0000
     0.0000   0.0000   0.0000   0.0000   0.0000   0.0000   0.0000   0.0000
     0.0000   0.0000   0.0000   0.0000   0.0000   0.0000   0.0000   0.0000
     0.0000   0.0000   0.0000   0.0000   0.0000   0.0000

          k = 0.1667 0.4811 0.0000 (126406 PWs)   bands (ev):

   -60.3623 -60.3574 -60.3561 -60.3442 -60.3386 -60.3378 -60.3316 -60.3094
   -60.3092 -60.3075 -60.3007 -60.3005 -60.2960 -60.2913 -60.2756 -60.2754
   -34.6457 -34.6328 -34.6153 -34.6059 -34.6005 -34.5870 -34.5731 -34.5614
   -34.5556 -34.5311 -34.5168 -34.4973 -34.4722 -34.4718 -34.4589 -34.4547
   -34.4489 -34.4423 -34.4414 -34.4328 -34.4278 -34.4249 -34.4206 -34.4080
   -34.4065 -34.4043 -34.4016 -34.3978 -34.3916 -34.3898 -34.3872 -34.3835
   -34.3798 -34.3774 -34.3725 -34.3708 -34.3638 -34.3572 -34.3564 -34.3552
   -34.3535 -34.3418 -34.3369 -34.3158 -34.3068 -34.2942 -34.2243 -34.2168
   -13.2963 -13.1514 -13.0121 -12.6497 -12.4313 -12.2424 -12.1609 -12.1139
   -12.0852 -12.0496 -12.0063 -11.9756 -11.8927 -11.8497 -11.8110 -11.7701
   -11.7513 -11.6865 -11.6421 -11.6233 -11.6083 -11.5818 -11.5676 -11.5467
   -11.5067 -11.5007 -11.4737 -11.4221 -11.4087 -11.3772 -11.3301  -4.9614
    -4.8878  -4.8804  -4.7949  -4.7835  -4.7544  -4.7128  -4.6825  -4.6411
    -4.6262  -4.6033  -4.5554  -4.5014  -4.4855  -4.4127  -4.3635  -4.3492
    -4.2729  -4.2541  -4.1017  -4.0535  -3.9679  -3.8757  -3.7800  -3.6585
    -3.5749  -3.4198  -3.4071  -3.3831  -3.3533  -3.3405  -3.3238  -3.3086
    -3.2956  -3.2797  -3.2667  -3.2323  -3.2276  -3.1414  -3.1010  -3.0031
    -2.9151  -2.8190  -2.7429  -2.6956  -2.6583  -2.6274  -2.5979  -2.5772
    -2.5481  -2.5132  -2.4987  -2.4795  -2.4514  -2.4267  -2.3951  -2.3787
    -2.2997  -2.2571  -2.1587  -2.0332  -1.9999  -1.8648  -1.8147  -1.7709
    -1.6947  -1.6716  -1.6032  -1.5004  -1.4802  -1.4474  -1.3940  -1.3608
    -1.3537  -1.3393  -1.3056  -1.2616  -1.2210  -1.2102  -1.1624  -1.1230
    -1.0871  -1.0305  -0.9939  -0.9684  -0.8914  -0.7974  -0.7611  -0.6914
    -0.5740  -0.5501  -0.4544  -0.4355  -0.3286  -0.3021  -0.2610  -0.2410
    -0.2207  -0.1899  -0.1093  -0.0940  -0.0563   0.1093   0.1473   0.2160
     0.2872   0.3586   0.4442   0.4649   0.5773   1.7313   1.7802   2.2819
     2.5271   2.5364   2.5980   2.6271   2.6671   2.6849   2.7086   2.7226
     2.7622   2.7884   2.7975   2.8292   2.8890   2.9546   2.9836   3.0018
     3.0244   3.0415   3.0593   3.0730   3.0848   3.1047   3.1115   3.1249
     3.1560   3.1676   3.1937   3.2389   3.3025   3.3444   3.4119   3.4487
     3.5313   3.5843   3.6742   3.7151   3.7548   3.7656

     occupation numbers 
     1.0000   1.0000   1.0000   1.0000   1.0000   1.0000   1.0000   1.0000
     1.0000   1.0000   1.0000   1.0000   1.0000   1.0000   1.0000   1.0000
     1.0000   1.0000   1.0000   1.0000   1.0000   1.0000   1.0000   1.0000
     1.0000   1.0000   1.0000   1.0000   1.0000   1.0000   1.0000   1.0000
     1.0000   1.0000   1.0000   1.0000   1.0000   1.0000   1.0000   1.0000
     1.0000   1.0000   1.0000   1.0000   1.0000   1.0000   1.0000   1.0000
     1.0000   1.0000   1.0000   1.0000   1.0000   1.0000   1.0000   1.0000
     1.0000   1.0000   1.0000   1.0000   1.0000   1.0000   1.0000   1.0000
     1.0000   1.0000   1.0000   1.0000   1.0000   1.0000   1.0000   1.0000
     1.0000   1.0000   1.0000   1.0000   1.0000   1.0000   1.0000   1.0000
     1.0000   1.0000   1.0000   1.0000   1.0000   1.0000   1.0000   1.0000
     1.0000   1.0000   1.0000   1.0000   1.0000   1.0000   1.0000   1.0000
     1.0000   1.0000   1.0000   1.0000   1.0000   1.0000   1.0000   1.0000
     1.0000   1.0000   1.0000   1.0000   1.0000   1.0000   1.0000   1.0000
     1.0000   1.0000   1.0000   1.0000   1.0000   1.0000   1.0000   1.0000
     1.0000   1.0000   1.0000   1.0000   1.0000   1.0000   1.0000   1.0000
     1.0000   1.0000   1.0000   1.0000   1.0000   1.0000   1.0000   1.0000
     1.0000   1.0000   1.0000   1.0000   1.0000   1.0000   1.0000   1.0000
     1.0000   1.0000   1.0000   1.0000   1.0000   1.0000   1.0000   1.0000
     1.0000   1.0000   1.0000   1.0000   1.0000   1.0000   1.0000   1.0000
     1.0000   1.0000   1.0000   1.0000   1.0000   1.0000   1.0000   1.0000
     1.0000   1.0000   1.0000   1.0000   1.0000   1.0000   1.0000   1.0000
     1.0000   1.0000   1.0000   1.0000   1.0000   1.0000   1.0000   1.0000
     1.0000   1.0000   1.0000   1.0000   1.0000   1.0000   1.0000   1.0000
     1.0000   1.0000   1.0000   1.0000   1.0000   1.0000   1.0000   1.0000
     1.0000   1.0000   1.0000   1.0000   0.9998   0.0002   0.0001   0.0000
     0.0000   0.0000   0.0000   0.0000   0.0000   0.0000   0.0000   0.0000
     0.0000   0.0000   0.0000   0.0000   0.0000   0.0000   0.0000   0.0000
     0.0000   0.0000   0.0000   0.0000   0.0000   0.0000   0.0000   0.0000
     0.0000   0.0000   0.0000   0.0000   0.0000   0.0000   0.0000   0.0000
     0.0000   0.0000   0.0000   0.0000   0.0000   0.0000

          k = 0.3333 0.5774 0.0000 (126429 PWs)   bands (ev):

   -60.3621 -60.3576 -60.3562 -60.3442 -60.3386 -60.3378 -60.3316 -60.3094
   -60.3091 -60.3075 -60.3007 -60.3006 -60.2959 -60.2913 -60.2756 -60.2754
   -34.6410 -34.6289 -34.6168 -34.6038 -34.5970 -34.5932 -34.5825 -34.5618
   -34.5565 -34.5249 -34.5222 -34.5036 -34.4712 -34.4682 -34.4588 -34.4565
   -34.4558 -34.4411 -34.4325 -34.4280 -34.4262 -34.4244 -34.4230 -34.4218
   -34.4073 -34.4038 -34.3978 -34.3917 -34.3914 -34.3875 -34.3875 -34.3829
   -34.3777 -34.3760 -34.3719 -34.3639 -34.3614 -34.3589 -34.3578 -34.3559
   -34.3550 -34.3438 -34.3320 -34.3239 -34.3068 -34.2950 -34.2249 -34.2174
   -13.2024 -13.1915 -13.1275 -12.4789 -12.4739 -12.3885 -12.0804 -12.0575
   -12.0513 -11.9921 -11.9860 -11.9627 -11.9545 -11.9528 -11.8341 -11.7854
   -11.7760 -11.7224 -11.6013 -11.5938 -11.5651 -11.5635 -11.5618 -11.5575
   -11.5533 -11.5371 -11.4689 -11.3986 -11.3940 -11.3909 -11.3218  -4.8515
    -4.7966  -4.7942  -4.7831  -4.7789  -4.7648  -4.7576  -4.7565  -4.6888
    -4.6853  -4.6741  -4.6081  -4.5952  -4.4886  -4.4384  -4.3671  -4.3161
    -4.2643  -4.2592  -3.9483  -3.9327  -3.8701  -3.8524  -3.8512  -3.7573
    -3.6948  -3.4440  -3.3693  -3.3666  -3.3642  -3.3526  -3.3266  -3.3020
    -3.2945  -3.2862  -3.2828  -3.2424  -3.1787  -3.1785  -3.0433  -3.0209
    -2.9563  -2.8151  -2.7350  -2.6342  -2.6218  -2.6005  -2.5905  -2.5783
    -2.5714  -2.5590  -2.5358  -2.5174  -2.5171  -2.5133  -2.4546  -2.3832
    -2.1671  -2.1640  -2.0517  -2.0196  -2.0150  -1.7967  -1.7756  -1.7447
    -1.7368  -1.6822  -1.5937  -1.5385  -1.5056  -1.4940  -1.4767  -1.4219
    -1.3353  -1.3059  -1.2665  -1.2214  -1.1816  -1.0800  -1.0775  -1.0699
    -1.0633  -1.0553  -1.0524  -1.0513  -1.0400  -1.0253  -0.7704  -0.6608
    -0.5581  -0.4856  -0.4496  -0.4057  -0.2805  -0.2429  -0.2428  -0.2217
    -0.2132  -0.2049  -0.1809  -0.1638  -0.1220   0.1645   0.1734   0.2504
     0.3377   0.3818   0.4254   0.5133   0.5495   1.7230   1.7940   2.2159
     2.4956   2.5752   2.5822   2.6386   2.6544   2.6597   2.6992   2.7272
     2.7417   2.7900   2.7940   2.8164   2.9575   2.9648   2.9909   2.9971
     3.0395   3.0449   3.0470   3.0636   3.0679   3.0704   3.0779   3.1105
     3.1350   3.1468   3.1834   3.2122   3.2502   3.2923   3.3723   3.5499
     3.5564   3.6596   3.6775   3.6842   3.7696   3.8107

     occupation numbers 
     1.0000   1.0000   1.0000   1.0000   1.0000   1.0000   1.0000   1.0000
     1.0000   1.0000   1.0000   1.0000   1.0000   1.0000   1.0000   1.0000
     1.0000   1.0000   1.0000   1.0000   1.0000   1.0000   1.0000   1.0000
     1.0000   1.0000   1.0000   1.0000   1.0000   1.0000   1.0000   1.0000
     1.0000   1.0000   1.0000   1.0000   1.0000   1.0000   1.0000   1.0000
     1.0000   1.0000   1.0000   1.0000   1.0000   1.0000   1.0000   1.0000
     1.0000   1.0000   1.0000   1.0000   1.0000   1.0000   1.0000   1.0000
     1.0000   1.0000   1.0000   1.0000   1.0000   1.0000   1.0000   1.0000
     1.0000   1.0000   1.0000   1.0000   1.0000   1.0000   1.0000   1.0000
     1.0000   1.0000   1.0000   1.0000   1.0000   1.0000   1.0000   1.0000
     1.0000   1.0000   1.0000   1.0000   1.0000   1.0000   1.0000   1.0000
     1.0000   1.0000   1.0000   1.0000   1.0000   1.0000   1.0000   1.0000
     1.0000   1.0000   1.0000   1.0000   1.0000   1.0000   1.0000   1.0000
     1.0000   1.0000   1.0000   1.0000   1.0000   1.0000   1.0000   1.0000
     1.0000   1.0000   1.0000   1.0000   1.0000   1.0000   1.0000   1.0000
     1.0000   1.0000   1.0000   1.0000   1.0000   1.0000   1.0000   1.0000
     1.0000   1.0000   1.0000   1.0000   1.0000   1.0000   1.0000   1.0000
     1.0000   1.0000   1.0000   1.0000   1.0000   1.0000   1.0000   1.0000
     1.0000   1.0000   1.0000   1.0000   1.0000   1.0000   1.0000   1.0000
     1.0000   1.0000   1.0000   1.0000   1.0000   1.0000   1.0000   1.0000
     1.0000   1.0000   1.0000   1.0000   1.0000   1.0000   1.0000   1.0000
     1.0000   1.0000   1.0000   1.0000   1.0000   1.0000   1.0000   1.0000
     1.0000   1.0000   1.0000   1.0000   1.0000   1.0000   1.0000   1.0000
     1.0000   1.0000   1.0000   1.0000   1.0000   1.0000   1.0000   1.0000
     1.0000   1.0000   1.0000   1.0000   1.0000   1.0000   1.0000   1.0000
     1.0000   1.0000   1.0000   0.9999   0.9999   0.0003   0.0001   0.0000
     0.0000   0.0000   0.0000   0.0000   0.0000   0.0000   0.0000   0.0000
     0.0000   0.0000   0.0000   0.0000   0.0000   0.0000   0.0000   0.0000
     0.0000   0.0000   0.0000   0.0000   0.0000   0.0000   0.0000   0.0000
     0.0000   0.0000   0.0000   0.0000   0.0000   0.0000   0.0000   0.0000
     0.0000   0.0000   0.0000   0.0000   0.0000   0.0000

     the Fermi energy is     1.1663 ev

!    total energy              =   -2979.42712506 Ry
     estimated scf accuracy    <          4.4E-11 Ry
     smearing contrib. (-TS)   =      -0.00007124 Ry
     internal energy E=F+TS    =   -2979.42705382 Ry

     The total energy is F=E-TS. E is the sum of the following terms:
     one-electron contribution =  -11135.40267609 Ry
     hartree contribution      =    5595.35206079 Ry
     xc contribution           =    -571.48065699 Ry
     ewald contribution        =    3132.10421846 Ry

     total magnetization       =    -0.00 Bohr mag/cell
     absolute magnetization    =     0.00 Bohr mag/cell

     convergence has been achieved in   3 iterations

     Writing all to output data dir /home/nihal/Desktop/Otptf/Trial_4.save/ :
     XML data file, charge density, pseudopotentials, collected wavefunctions

     init_run     :      6.36s CPU     11.08s WALL (       1 calls)
     electrons    :    782.37s CPU    807.35s WALL (       1 calls)

     Called by init_run:
     wfcinit      :      1.39s CPU      5.17s WALL (       1 calls)
     potinit      :      1.23s CPU      1.42s WALL (       1 calls)
     hinit0       :      0.91s CPU      0.95s WALL (       1 calls)

     Called by electrons:
     c_bands      :    657.24s CPU    674.87s WALL (       4 calls)
     sum_band     :    115.63s CPU    120.61s WALL (       4 calls)
     v_of_rho     :      3.27s CPU      3.56s WALL (       4 calls)
     v_h          :      0.14s CPU      0.16s WALL (       4 calls)
     v_xc         :      3.13s CPU      3.41s WALL (       4 calls)
     newd         :      8.36s CPU     11.11s WALL (       4 calls)
     mix_rho      :      0.32s CPU      0.37s WALL (       4 calls)

     Called by c_bands:
     init_us_2    :     12.96s CPU     13.03s WALL (     112 calls)
     cegterg      :    635.74s CPU    653.28s WALL (      56 calls)

     Called by sum_band:
     sum_band:wei :      0.00s CPU      0.00s WALL (       4 calls)
     sum_band:loo :     96.32s CPU     98.40s WALL (       4 calls)
     sum_band:buf :      1.11s CPU      1.11s WALL (      56 calls)
     sum_band:ini :      6.15s CPU      6.15s WALL (      56 calls)
     sum_band:cal :     41.91s CPU     41.95s WALL (      56 calls)
     sum_band:bec :      0.05s CPU      0.05s WALL (      56 calls)
     addusdens    :     18.51s CPU     21.37s WALL (       4 calls)
                                        0.00s GPU  (       4 calls)
     addusd:skk   :      0.16s CPU      0.38s WALL (       8 calls)
                                        0.00s GPU  (       8 calls)

     Called by *egterg:
     cdiaghg      :     14.17s CPU     14.30s WALL (     150 calls)
     cegterg:over :    102.30s CPU    102.36s WALL (     122 calls)
     cegterg:upda :     33.08s CPU     34.62s WALL (     122 calls)
     cegterg:last :     22.41s CPU     22.44s WALL (      56 calls)
     cdiaghg:chol :      0.68s CPU      0.68s WALL (     150 calls)
     cdiaghg:inve :      0.14s CPU      0.14s WALL (     150 calls)
     cdiaghg:para :      3.58s CPU      3.68s WALL (     300 calls)
     h_psi        :    347.68s CPU    358.87s WALL (     178 calls)
     s_psi        :     57.32s CPU     57.33s WALL (     178 calls)
     g_psi        :      1.06s CPU      1.06s WALL (     122 calls)

     Called by h_psi:
     h_psi:calbec :     93.02s CPU     93.09s WALL (     178 calls)
     vloc_psi     :    195.88s CPU    205.31s WALL (     178 calls)
                                        0.00s GPU  (     178 calls)
     add_vuspsi   :     57.16s CPU     57.17s WALL (     178 calls)

     General routines
     calbec       :    134.93s CPU    135.04s WALL (     234 calls)
     fft          :      2.82s CPU      3.00s WALL (      96 calls)
     ffts         :      0.28s CPU      0.29s WALL (      16 calls)
     fftw         :    178.24s CPU    189.26s WALL (   74940 calls)
     interpolate  :      0.49s CPU      0.51s WALL (       8 calls)

     Parallel routines

     PWSCF        :  13m 9.86s CPU  13m41.49s WALL


   This run was terminated on:   9:42:19   9Jul2026            

=------------------------------------------------------------------------------=
   JOB DONE.
=------------------------------------------------------------------------------=
