
     Program PWSCF v.7.5 starts on  1Jul2026 at 15:39: 7 

     This program is part of the open-source Quantum ESPRESSO suite
     for quantum simulation of materials; please cite
         "P. Giannozzi et al., J. Phys.:Condens. Matter 21 395502 (2009);
         "P. Giannozzi et al., J. Phys.:Condens. Matter 29 465901 (2017);
         "P. Giannozzi et al., J. Chem. Phys. 152 154105 (2020);
          URL http://www.quantum-espresso.org", 
     in publications or presentations arising from this work. More details at
     http://www.quantum-espresso.org/quote

     Parallel version (MPI), running on     7 processors

     MPI processes distributed on     1 nodes
     27728 MiB available memory on the printing compute node when the environment starts

     Reading input from MoSt_scf.in

     Current dimensions of program PWSCF are:
     Max number of different atomic species (ntypx) = 10
     Max number of k-points (npk) =  40000
     Max angular momentum in pseudopotentials (lmaxx) =  4
     Found identity + (  0.0000  0.2500 -0.0000) symmetry
     This is a supercell, fractional translations are disabled
     Message from routine setup:
     using ibrav=0 with symmetry is DISCOURAGED, use correct ibrav instead

     R & G space division:  proc/nbgrp/npool/nimage =       7
     Subspace diagonalization in iterative solution of the eigenvalue problem:
     one sub-group per band group will be used
     scalapack distributed-memory algorithm (size of sub-group:  2*  2 procs)


     Parallelization info
     --------------------
     sticks:   dense  smooth     PW     G-vecs:    dense   smooth      PW
     Min        2860    1487    387               385038   144365   19249
     Max        2862    1488    388               385039   144370   19254
     Sum       20029   10411   2713              2695269  1010563  134763

     Using Slab Decomposition



     bravais-lattice index     =            0
     lattice parameter (alat)  =      24.1153  a.u.
     unit-cell volume          =   14275.9760 (a.u.)^3
     number of atoms/cell      =           48
     number of atomic types    =            2
     number of electrons       =       416.00
     number of Kohn-Sham states=          208
     kinetic-energy cutoff     =      65.0000  Ry
     charge density cutoff     =     500.0000  Ry
     scf convergence threshold =      1.0E-10
     mixing beta               =       0.3000
     number of iterations used =            8  plain     mixing
     Exchange-correlation=  SLA  PW   PBX  PBC
                           (   1   4   3   4   0   0   0)

     celldm(1)=  24.115292  celldm(2)=   0.000000  celldm(3)=   0.000000
     celldm(4)=   0.000000  celldm(5)=   0.000000  celldm(6)=   0.000000

     crystal axes: (cart. coord. in units of alat)
               a(1) = (   1.000000   0.000000   0.000000 )  
               a(2) = (  -0.500000   0.866025   0.000000 )  
               a(3) = (   0.000000   0.000000   1.175432 )  

     reciprocal axes: (cart. coord. in units 2 pi/alat)
               b(1) = (  1.000000  0.577350 -0.000000 )  
               b(2) = (  0.000000  1.154701  0.000000 )  
               b(3) = (  0.000000 -0.000000  0.850751 )  


     PseudoPot. # 1 for Mo read from file:
     /home/nihal/Desktop/pseudos/mo_pbe_v1.uspp.F.UPF
     MD5 check sum: 30c4dcd161f5d35cd49bb5239c51a633
     Pseudo is Ultrasoft + core correction, Zval = 14.0
     Generated by new atomic code, or converted to UPF format
     Using radial grid of  889 points,  6 beta functions with: 
                l(1) =   0
                l(2) =   0
                l(3) =   1
                l(4) =   1
                l(5) =   2
                l(6) =   2
     Q(r) pseudized with  6 coefficients,  rinner =    1.000   1.000   1.000
                                                       1.000   1.000

     PseudoPot. # 2 for S  read from file:
     /home/nihal/Desktop/pseudos/s_pbe_v1.4.uspp.F.UPF
     MD5 check sum: 88d86576ff6df21479756cfb9bdac1df
     Pseudo is Ultrasoft + core correction, Zval =  6.0
     Generated by new atomic code, or converted to UPF format
     Using radial grid of  907 points,  6 beta functions with: 
                l(1) =   0
                l(2) =   0
                l(3) =   1
                l(4) =   1
                l(5) =   2
                l(6) =   2
     Q(r) pseudized with  8 coefficients,  rinner =    1.300   1.300   1.300
                                                       1.300   1.300

     atomic species   valence    mass     pseudopotential
     Mo               14.00    95.95000     Mo( 1.00)
     S                 6.00    32.06500     S ( 1.00)

      6 Sym. Ops. (no inversion) found



   Cartesian axes

     site n.     atom                  positions (alat units)
         1        Mo     tau(   1) = (   0.1249999   0.0721687   0.8744628  )
         2        Mo     tau(   2) = (   0.0000000   0.2886750   0.8744628  )
         3        Mo     tau(   3) = (  -0.1250001   0.5051815   0.8744628  )
         4        Mo     tau(   4) = (  -0.2500001   0.7216879   0.8744628  )
         5        Mo     tau(   5) = (   0.3749999   0.0721688   0.8744628  )
         6        Mo     tau(   6) = (   0.2500000   0.2886750   0.8744628  )
         7        Mo     tau(   7) = (   0.1250001   0.5051815   0.8744628  )
         8        Mo     tau(   8) = (   0.0000000   0.7216879   0.8744628  )
         9        Mo     tau(   9) = (   0.6250001   0.0721688   0.8744628  )
        10        Mo     tau(  10) = (   0.5000000   0.2886751   0.8744628  )
        11        Mo     tau(  11) = (   0.3750001   0.5051816   0.8744628  )
        12        Mo     tau(  12) = (   0.2500001   0.7216879   0.8744628  )
        13        Mo     tau(  13) = (   0.8750001   0.0721687   0.8744628  )
        14        Mo     tau(  14) = (   0.7500000   0.2886750   0.8744628  )
        15        Mo     tau(  15) = (   0.6249999   0.5051816   0.8744628  )
        16        Mo     tau(  16) = (   0.5000000   0.7216879   0.8744628  )
        17        S      tau(  17) = (   0.0000000   0.1443377   0.9967145  )
        18        S      tau(  18) = (  -0.1250000   0.3608439   0.9967144  )
        19        S      tau(  19) = (  -0.2500000   0.5773503   0.9967144  )
        20        S      tau(  20) = (  -0.3750000   0.7938566   0.9967145  )
        21        S      tau(  21) = (   0.2500000   0.1443376   0.9967145  )
        22        S      tau(  22) = (   0.1250000   0.3608439   0.9967144  )
        23        S      tau(  23) = (   0.0000000   0.5773503   0.9967144  )
        24        S      tau(  24) = (  -0.1250000   0.7938566   0.9967144  )
        25        S      tau(  25) = (   0.5000000   0.1443374   0.9967146  )
        26        S      tau(  26) = (   0.3749999   0.3608440   0.9967146  )
        27        S      tau(  27) = (   0.2500000   0.5773503   0.9967144  )
        28        S      tau(  28) = (   0.1250000   0.7938566   0.9967144  )
        29        S      tau(  29) = (   0.7500000   0.1443376   0.9967145  )
        30        S      tau(  30) = (   0.6250001   0.3608440   0.9967146  )
        31        S      tau(  31) = (   0.5000000   0.5773503   0.9967145  )
        32        S      tau(  32) = (   0.3750000   0.7938566   0.9967145  )
        33        S      tau(  33) = (   0.0000000   0.1443377   0.7522117  )
        34        S      tau(  34) = (  -0.1250000   0.3608439   0.7522118  )
        35        S      tau(  35) = (  -0.2500000   0.5773503   0.7522118  )
        36        S      tau(  36) = (  -0.3750000   0.7938566   0.7522117  )
        37        S      tau(  37) = (   0.2500000   0.1443376   0.7522118  )
        38        S      tau(  38) = (   0.1250000   0.3608439   0.7522118  )
        39        S      tau(  39) = (   0.0000000   0.5773503   0.7522118  )
        40        S      tau(  40) = (  -0.1250000   0.7938566   0.7522118  )
        41        S      tau(  41) = (   0.5000000   0.1443374   0.7522116  )
        42        S      tau(  42) = (   0.3749999   0.3608440   0.7522116  )
        43        S      tau(  43) = (   0.2500000   0.5773503   0.7522118  )
        44        S      tau(  44) = (   0.1250000   0.7938566   0.7522118  )
        45        S      tau(  45) = (   0.7500000   0.1443376   0.7522118  )
        46        S      tau(  46) = (   0.6250001   0.3608440   0.7522116  )
        47        S      tau(  47) = (   0.5000000   0.5773503   0.7522118  )
        48        S      tau(  48) = (   0.3750000   0.7938566   0.7522117  )

     number of k points=    19
                       cart. coord. in units 2pi/alat
        k(    1) = (   0.0000000   0.0000000   0.0000000), wk =   0.0138889
        k(    2) = (   0.0000000   0.0962250   0.0000000), wk =   0.0833333
        k(    3) = (   0.0000000   0.1924501   0.0000000), wk =   0.0833333
        k(    4) = (   0.0000000   0.2886751   0.0000000), wk =   0.0833333
        k(    5) = (   0.0000000   0.3849002   0.0000000), wk =   0.0833333
        k(    6) = (   0.0000000   0.4811252   0.0000000), wk =   0.0833333
        k(    7) = (   0.0000000  -0.5773503   0.0000000), wk =   0.0416667
        k(    8) = (   0.0833333   0.1443376   0.0000000), wk =   0.0833333
        k(    9) = (   0.0833333   0.2405626   0.0000000), wk =   0.1666667
        k(   10) = (   0.0833333   0.3367877   0.0000000), wk =   0.1666667
        k(   11) = (   0.0833333   0.4330127   0.0000000), wk =   0.1666667
        k(   12) = (   0.0833333   0.5292377   0.0000000), wk =   0.1666667
        k(   13) = (   0.1666667   0.2886751   0.0000000), wk =   0.0833333
        k(   14) = (   0.1666667   0.3849002   0.0000000), wk =   0.1666667
        k(   15) = (   0.1666667   0.4811252   0.0000000), wk =   0.1666667
        k(   16) = (   0.1666667   0.5773503   0.0000000), wk =   0.0833333
        k(   17) = (   0.2500000   0.4330127   0.0000000), wk =   0.0833333
        k(   18) = (   0.2500000   0.5292377   0.0000000), wk =   0.1666667
        k(   19) = (   0.3333333   0.5773503   0.0000000), wk =   0.0277778

     Dense  grid:  2695269 G-vectors     FFT dimensions: ( 180, 180, 216)

     Smooth grid:  1010563 G-vectors     FFT dimensions: ( 125, 125, 150)

     Estimated max dynamical RAM per process >       3.20 GB

     Estimated total dynamical RAM >      22.38 GB

     Atomic positions and unit cell read from directory:
     /home/nihal/Desktop/Otptf/Trial_2.save/


     The initial density is read from file :
     /home/nihal/Desktop/Otptf/Trial_2.save/charge-density


     negative rho (up, down):  2.808E-03 0.000E+00
     Starting wfcs from file

     total cpu time spent up to now is        4.5 secs

     Self-consistent Calculation

     iteration #  1     ecut=    65.00 Ry     beta= 0.30
     Davidson diagonalization with overlap
     ethr =  1.00E-05,  avg # of iterations =  1.0

     Threshold (ethr) on eigenvalues was too large:
     Diagonalizing with lowered threshold

     Davidson diagonalization with overlap
     ethr =  4.85E-13,  avg # of iterations =  5.6

     negative rho (up, down):  2.808E-03 0.000E+00

     total cpu time spent up to now is      607.9 secs

     total energy              =   -3003.72433620 Ry
     estimated scf accuracy    <          6.6E-10 Ry

     iteration #  2     ecut=    65.00 Ry     beta= 0.30
     Davidson diagonalization with overlap
     ethr =  1.58E-13,  avg # of iterations =  4.6

     negative rho (up, down):  2.808E-03 0.000E+00

     total cpu time spent up to now is      980.5 secs

     total energy              =   -3003.72433620 Ry
     estimated scf accuracy    <          3.9E-10 Ry

     iteration #  3     ecut=    65.00 Ry     beta= 0.30
     Davidson diagonalization with overlap
     ethr =  1.00E-13,  avg # of iterations =  4.4

     negative rho (up, down):  2.808E-03 0.000E+00

     total cpu time spent up to now is     1247.6 secs

     End of self-consistent calculation

          k = 0.0000 0.0000 0.0000 (126355 PWs)   bands (ev):

   -60.2545 -60.2365 -60.2365 -60.2365 -60.2365 -60.2365 -60.2365 -60.2184
   -60.2184 -60.2184 -60.2184 -60.2184 -60.2184 -60.2184 -60.2184 -60.2184
   -34.5463 -34.5463 -34.5463 -34.4800 -34.4800 -34.4800 -34.4800 -34.4800
   -34.4800 -34.3815 -34.3684 -34.3684 -34.3684 -34.3684 -34.3684 -34.3684
   -34.3453 -34.3453 -34.3453 -34.3453 -34.3452 -34.3452 -34.3377 -34.3377
   -34.3377 -34.3377 -34.3377 -34.3377 -34.3088 -34.3088 -34.3088 -34.3088
   -34.3088 -34.3088 -34.3087 -34.3087 -34.3087 -34.2690 -34.2690 -34.2690
   -34.2274 -34.2274 -34.2274 -34.2274 -34.2274 -34.2274 -34.1854 -34.1854
   -13.4150 -12.6013 -12.6013 -12.6013 -12.6013 -12.6013 -12.6013 -12.1074
   -11.7766 -11.7766 -11.7766 -11.7766 -11.7766 -11.7765 -11.6012 -11.6012
   -11.6012 -11.6012 -11.6012 -11.6012 -11.5743 -11.5743 -11.5743 -11.3775
   -11.3775 -11.3775 -11.3564 -11.3564 -11.3564 -11.3564 -11.3563 -11.3563
    -5.0850  -5.0850  -5.0850  -4.9329  -4.4332  -4.4332  -4.4332  -4.4332
    -4.4332  -4.4332  -4.3192  -4.3192  -4.3192  -4.3192  -4.3192  -4.3192
    -4.2383  -4.2382  -4.2382  -4.2382  -4.2382  -4.2382  -4.0960  -4.0960
    -4.0960  -3.3962  -3.3962  -3.3962  -3.1560  -3.1560  -3.1560  -3.1560
    -3.1560  -3.1560  -2.9492  -2.9492  -2.9492  -2.9492  -2.9491  -2.9491
    -2.8976  -2.8976  -2.8976  -2.8976  -2.8976  -2.8976  -2.5551  -2.5551
    -2.5551  -2.5551  -2.5551  -2.5551  -2.5123  -2.5123  -2.5123  -2.2463
    -2.2463  -2.2463  -2.2463  -2.2463  -2.2463  -1.9725  -1.9725  -1.8394
    -1.8394  -1.8394  -1.8393  -1.8393  -1.8393  -1.1976  -1.1976  -1.1976
    -1.1573  -1.1573  -1.1573  -1.1573  -1.1573  -1.1573  -1.0967  -0.9680
    -0.9680  -0.9680  -0.9680  -0.9680  -0.9680  -0.8717  -0.8717  -0.6593
    -0.6593  -0.6593  -0.6593  -0.6593  -0.6593  -0.3490  -0.3490  -0.3490
    -0.0555  -0.0555  -0.0555  -0.0554  -0.0554  -0.0554   0.0248   0.0248
     0.0248   0.1237   0.1237   0.1237   0.1237   0.1237   0.1237   0.6716

          k = 0.0000 0.0962 0.0000 (126291 PWs)   bands (ev):

   -60.2544 -60.2389 -60.2376 -60.2376 -60.2353 -60.2352 -60.2341 -60.2197
   -60.2197 -60.2186 -60.2184 -60.2184 -60.2184 -60.2184 -60.2173 -60.2173
   -34.5454 -34.5454 -34.5448 -34.4824 -34.4824 -34.4816 -34.4816 -34.4764
   -34.4763 -34.3919 -34.3812 -34.3804 -34.3804 -34.3570 -34.3570 -34.3500
   -34.3488 -34.3488 -34.3475 -34.3475 -34.3448 -34.3427 -34.3427 -34.3405
   -34.3360 -34.3360 -34.3259 -34.3259 -34.3113 -34.3113 -34.3091 -34.3088
   -34.3088 -34.3087 -34.3087 -34.3066 -34.3066 -34.2699 -34.2699 -34.2687
   -34.2328 -34.2308 -34.2308 -34.2252 -34.2252 -34.2219 -34.1869 -34.1857
   -13.4086 -12.7164 -12.6556 -12.6555 -12.5387 -12.5387 -12.4828 -12.1047
   -11.8230 -11.7983 -11.7983 -11.7513 -11.7513 -11.7290 -11.6789 -11.6789
   -11.6008 -11.6007 -11.5846 -11.5748 -11.5748 -11.5319 -11.5319 -11.3904
   -11.3904 -11.3813 -11.3771 -11.3771 -11.3567 -11.3567 -11.3257 -11.3257
    -5.0761  -5.0761  -5.0748  -4.9254  -4.4483  -4.4483  -4.4473  -4.4473
    -4.4084  -4.4084  -4.3500  -4.3500  -4.3381  -4.3360  -4.3215  -4.3215
    -4.3204  -4.3204  -4.2361  -4.2361  -4.1122  -4.1122  -4.0987  -4.0987
    -4.0857  -3.3927  -3.3927  -3.3910  -3.2025  -3.1830  -3.1830  -3.1229
    -3.1229  -3.0795  -3.0559  -2.9763  -2.9763  -2.9742  -2.9742  -2.9628
    -2.9628  -2.9605  -2.9605  -2.8162  -2.8162  -2.7364  -2.5930  -2.5930
    -2.5536  -2.5536  -2.5120  -2.5120  -2.5084  -2.5084  -2.5073  -2.3771
    -2.3771  -2.1986  -2.1986  -2.0893  -2.0893  -1.9875  -1.9658  -1.9385
    -1.9132  -1.9132  -1.8128  -1.8128  -1.7357  -1.2664  -1.2149  -1.2149
    -1.1952  -1.1952  -1.1939  -1.1675  -1.1084  -1.1084  -1.0579  -1.0579
    -1.0480  -0.9733  -0.9733  -0.8825  -0.8814  -0.8814  -0.8099  -0.7371
    -0.6814  -0.6814  -0.6041  -0.6041  -0.5840  -0.3948  -0.3948  -0.3552
    -0.1542  -0.1069  -0.1069  -0.0027  -0.0027   0.0124   0.0440   0.0440
     0.0530   0.0530   0.0553   0.1255   0.1255   0.2026   0.2026   0.6687

          k = 0.0000 0.1925 0.0000 (126305 PWs)   bands (ev):

   -60.2539 -60.2412 -60.2385 -60.2385 -60.2339 -60.2339 -60.2318 -60.2211
   -60.2211 -60.2190 -60.2184 -60.2184 -60.2184 -60.2184 -60.2164 -60.2164
   -34.5429 -34.5429 -34.5403 -34.4863 -34.4863 -34.4838 -34.4838 -34.4715
   -34.4715 -34.4149 -34.3928 -34.3928 -34.3803 -34.3588 -34.3588 -34.3547
   -34.3494 -34.3493 -34.3466 -34.3466 -34.3399 -34.3399 -34.3358 -34.3313
   -34.3312 -34.3215 -34.3141 -34.3141 -34.3138 -34.3137 -34.3100 -34.3088
   -34.3088 -34.3087 -34.3087 -34.3047 -34.3047 -34.2726 -34.2726 -34.2676
   -34.2382 -34.2355 -34.2355 -34.2242 -34.2242 -34.2165 -34.1917 -34.1868
   -13.3895 -12.8265 -12.7007 -12.7007 -12.4684 -12.4684 -12.3627 -12.0969
   -11.8675 -11.8164 -11.8164 -11.7631 -11.7631 -11.7228 -11.7228 -11.6811
   -11.6152 -11.5994 -11.5994 -11.5761 -11.5761 -11.4725 -11.4725 -11.4271
   -11.4271 -11.3926 -11.3761 -11.3761 -11.3578 -11.3578 -11.2993 -11.2993
    -5.0496  -5.0496  -5.0444  -4.9033  -4.4879  -4.4879  -4.4537  -4.4537
    -4.4448  -4.4448  -4.3908  -4.3827  -4.3757  -4.3757  -4.3283  -4.3283
    -4.3235  -4.3235  -4.2296  -4.2296  -4.1066  -4.1066  -4.0548  -3.9754
    -3.9754  -3.3821  -3.3821  -3.3760  -3.2242  -3.2098  -3.2004  -3.2004
    -3.0877  -3.0877  -3.0535  -3.0535  -3.0330  -3.0330  -3.0077  -3.0077
    -2.9884  -2.9884  -2.9756  -2.7325  -2.7325  -2.6182  -2.6182  -2.5736
    -2.5492  -2.5492  -2.5113  -2.5113  -2.4921  -2.4698  -2.4698  -2.4569
    -2.4569  -2.0740  -2.0740  -2.0320  -2.0319  -2.0248  -2.0248  -1.9457
    -1.9195  -1.9195  -1.8303  -1.8303  -1.6290  -1.3731  -1.2999  -1.2731
    -1.2731  -1.1878  -1.1878  -1.1829  -1.1464  -1.1464  -1.0784  -1.0784
    -0.9886  -0.9886  -0.9406  -0.9141  -0.8135  -0.8025  -0.8025  -0.7051
    -0.6765  -0.6765  -0.5229  -0.5229  -0.5158  -0.5110  -0.5110  -0.3739
    -0.2327  -0.1506  -0.1506  -0.0229  -0.0076  -0.0076   0.0462   0.0462
     0.0822   0.0822   0.1306   0.1306   0.1693   0.2853   0.2853   0.6595

          k = 0.0000 0.2887 0.0000 (126306 PWs)   bands (ev):

   -60.2532 -60.2434 -60.2393 -60.2393 -60.2324 -60.2324 -60.2296 -60.2226
   -60.2226 -60.2198 -60.2184 -60.2184 -60.2184 -60.2184 -60.2156 -60.2156
   -34.5388 -34.5387 -34.5329 -34.4931 -34.4931 -34.4844 -34.4844 -34.4653
   -34.4653 -34.4370 -34.4051 -34.4051 -34.3788 -34.3672 -34.3672 -34.3592
   -34.3508 -34.3508 -34.3377 -34.3377 -34.3369 -34.3369 -34.3313 -34.3242
   -34.3242 -34.3172 -34.3172 -34.3115 -34.3088 -34.3088 -34.3088 -34.3087
   -34.3032 -34.3032 -34.3015 -34.3015 -34.2990 -34.2769 -34.2769 -34.2659
   -34.2434 -34.2416 -34.2416 -34.2240 -34.2240 -34.2113 -34.1995 -34.1886
   -13.3578 -12.9303 -12.7364 -12.7364 -12.3913 -12.3913 -12.2430 -12.0840
   -11.9096 -11.8521 -11.8521 -11.8306 -11.8306 -11.6914 -11.6914 -11.6648
   -11.6337 -11.5973 -11.5973 -11.5783 -11.5783 -11.4655 -11.4655 -11.4246
   -11.4246 -11.4111 -11.3744 -11.3744 -11.3595 -11.3595 -11.2778 -11.2778
    -5.0064  -5.0064  -4.9952  -4.8669  -4.5501  -4.5501  -4.5207  -4.5207
    -4.4689  -4.4498  -4.4498  -4.4495  -4.3402  -4.3402  -4.3384  -4.3384
    -4.3273  -4.3273  -4.2193  -4.2193  -4.1190  -4.1190  -4.0041  -3.8320
    -3.8320  -3.3645  -3.3645  -3.3575  -3.3530  -3.2323  -3.2059  -3.2059
    -3.1320  -3.1320  -3.1008  -3.1008  -3.0774  -3.0774  -3.0546  -3.0546
    -3.0259  -3.0259  -2.8519  -2.6489  -2.6489  -2.6269  -2.6269  -2.5426
    -2.5425  -2.5236  -2.5236  -2.5110  -2.5110  -2.4670  -2.4100  -2.4056
    -2.4056  -2.1567  -2.1567  -2.1190  -2.1034  -1.9125  -1.9023  -1.9023
    -1.8780  -1.8780  -1.7472  -1.7472  -1.5207  -1.4755  -1.4478  -1.3253
    -1.3253  -1.2275  -1.2275  -1.1751  -1.1751  -1.1642  -1.0776  -1.0776
    -1.0122  -1.0122  -0.9651  -0.8857  -0.8374  -0.7350  -0.7350  -0.6697
    -0.6697  -0.6577  -0.6577  -0.6049  -0.4604  -0.4324  -0.4324  -0.4052
    -0.2843  -0.1797  -0.1797  -0.0762  -0.0582  -0.0582   0.0877   0.0877
     0.1168   0.1168   0.1380   0.1380   0.2788   0.3652   0.3652   0.6430

          k = 0.0000 0.3849 0.0000 (126328 PWs)   bands (ev):

   -60.2521 -60.2455 -60.2398 -60.2398 -60.2308 -60.2308 -60.2275 -60.2242
   -60.2241 -60.2208 -60.2184 -60.2184 -60.2184 -60.2184 -60.2151 -60.2151
   -34.5331 -34.5331 -34.5227 -34.5013 -34.5013 -34.4845 -34.4845 -34.4579
   -34.4578 -34.4578 -34.4172 -34.4172 -34.3767 -34.3737 -34.3737 -34.3634
   -34.3519 -34.3519 -34.3337 -34.3337 -34.3309 -34.3309 -34.3270 -34.3204
   -34.3204 -34.3158 -34.3158 -34.3137 -34.3088 -34.3088 -34.3088 -34.3088
   -34.3021 -34.3021 -34.2896 -34.2896 -34.2828 -34.2827 -34.2775 -34.2635
   -34.2490 -34.2490 -34.2483 -34.2242 -34.2242 -34.2102 -34.2064 -34.1910
   -13.3138 -13.0263 -12.7622 -12.7621 -12.3085 -12.3085 -12.1258 -12.0660
   -11.9487 -11.9441 -11.9441 -11.8408 -11.8408 -11.7318 -11.6574 -11.6574
   -11.5946 -11.5946 -11.5877 -11.5811 -11.5811 -11.5048 -11.5048 -11.4362
   -11.3895 -11.3895 -11.3722 -11.3722 -11.3617 -11.3617 -11.2620 -11.2620
    -4.9481  -4.9481  -4.9291  -4.8174  -4.6271  -4.6271  -4.5760  -4.5760
    -4.5619  -4.5269  -4.4382  -4.4382  -4.3571  -4.3571  -4.3307  -4.3307
    -4.3021  -4.3021  -4.2055  -4.2055  -4.1347  -4.1347  -3.9344  -3.6878
    -3.6878  -3.4972  -3.3398  -3.3398  -3.3249  -3.2384  -3.2163  -3.2163
    -3.1984  -3.1984  -3.1648  -3.1648  -3.1514  -3.1513  -3.0680  -3.0680
    -3.0276  -3.0276  -2.7166  -2.6147  -2.6147  -2.5709  -2.5709  -2.5501
    -2.5501  -2.5347  -2.5347  -2.5120  -2.5119  -2.4319  -2.3606  -2.3606
    -2.2911  -2.2911  -2.2464  -2.1986  -2.1983  -1.9387  -1.9387  -1.8667
    -1.7040  -1.7040  -1.6024  -1.5807  -1.5807  -1.5718  -1.4128  -1.3664
    -1.3664  -1.2944  -1.2944  -1.1568  -1.1568  -1.1379  -1.1133  -1.1133
    -1.0413  -1.0413  -1.0328  -0.9517  -0.8558  -0.8558  -0.7405  -0.6820
    -0.6820  -0.6376  -0.6376  -0.5206  -0.4490  -0.4231  -0.3515  -0.3514
    -0.3052  -0.1903  -0.1902  -0.1398  -0.1002  -0.1002   0.1190   0.1190
     0.1404   0.1404   0.1461   0.1461   0.3774   0.4333   0.4333   0.6172

          k = 0.0000 0.4811 0.0000 (126334 PWs)   bands (ev):

   -60.2508 -60.2475 -60.2401 -60.2401 -60.2291 -60.2291 -60.2258 -60.2258
   -60.2255 -60.2221 -60.2184 -60.2184 -60.2184 -60.2184 -60.2148 -60.2148
   -34.5263 -34.5263 -34.5099 -34.5099 -34.5099 -34.4844 -34.4844 -34.4773
   -34.4491 -34.4491 -34.4286 -34.4286 -34.3778 -34.3778 -34.3741 -34.3674
   -34.3526 -34.3526 -34.3304 -34.3304 -34.3265 -34.3265 -34.3237 -34.3237
   -34.3231 -34.3163 -34.3088 -34.3088 -34.3088 -34.3088 -34.3069 -34.3069
   -34.3015 -34.3014 -34.2899 -34.2899 -34.2781 -34.2781 -34.2605 -34.2577
   -34.2577 -34.2576 -34.2528 -34.2246 -34.2246 -34.2236 -34.2018 -34.1941
   -13.2581 -13.1136 -12.7777 -12.7777 -12.2210 -12.2210 -12.0433 -12.0373
   -12.0373 -12.0136 -11.9843 -11.8470 -11.8470 -11.8139 -11.6212 -11.6212
   -11.5914 -11.5913 -11.5844 -11.5844 -11.5443 -11.5443 -11.5440 -11.4673
   -11.3697 -11.3697 -11.3680 -11.3680 -11.3642 -11.3642 -11.2523 -11.2523
    -4.8771  -4.8771  -4.8490  -4.7560  -4.7116  -4.7116  -4.6606  -4.6096
    -4.6096  -4.6073  -4.4206  -4.4206  -4.3776  -4.3776  -4.3331  -4.3331
    -4.2749  -4.2749  -4.1891  -4.1891  -4.1525  -4.1525  -3.8472  -3.6267
    -3.5491  -3.5491  -3.3116  -3.3116  -3.3079  -3.3079  -3.2957  -3.2499
    -3.2209  -3.2209  -3.2068  -3.2068  -3.1785  -3.1785  -3.1100  -3.1100
    -3.0099  -3.0099  -2.5773  -2.5769  -2.5769  -2.5614  -2.5614  -2.5268
    -2.5268  -2.5148  -2.5148  -2.5102  -2.5102  -2.4125  -2.4125  -2.3873
    -2.3291  -2.3291  -2.3124  -2.2702  -2.0833  -1.9920  -1.9920  -1.8089
    -1.7606  -1.6603  -1.4916  -1.4916  -1.4273  -1.4273  -1.3926  -1.3926
    -1.3393  -1.3393  -1.3074  -1.1868  -1.1868  -1.1330  -1.1329  -1.1145
    -1.1035  -1.0731  -1.0731  -1.0599  -1.0599  -1.0103  -0.6518  -0.6458
    -0.6457  -0.6254  -0.6254  -0.5050  -0.4577  -0.4086  -0.2959  -0.2959
    -0.2955  -0.2042  -0.1832  -0.1832  -0.1351  -0.1351   0.1384   0.1384
     0.1529   0.1529   0.1530   0.1530   0.4611   0.4798   0.4798   0.5798

          k = 0.0000-0.5774 0.0000 (126288 PWs)   bands (ev):

   -60.2493 -60.2493 -60.2403 -60.2402 -60.2275 -60.2275 -60.2275 -60.2274
   -60.2237 -60.2237 -60.2184 -60.2184 -60.2184 -60.2184 -60.2146 -60.2146
   -34.5184 -34.5184 -34.5184 -34.5184 -34.4947 -34.4947 -34.4843 -34.4843
   -34.4394 -34.4394 -34.4394 -34.4394 -34.3792 -34.3792 -34.3709 -34.3709
   -34.3528 -34.3528 -34.3271 -34.3270 -34.3270 -34.3270 -34.3250 -34.3250
   -34.3195 -34.3195 -34.3088 -34.3088 -34.3088 -34.3088 -34.3012 -34.3012
   -34.2981 -34.2981 -34.2981 -34.2981 -34.2674 -34.2674 -34.2674 -34.2674
   -34.2569 -34.2569 -34.2395 -34.2395 -34.2247 -34.2247 -34.1977 -34.1977
   -13.1911 -13.1911 -12.7829 -12.7829 -12.1301 -12.1301 -12.1301 -12.1301
   -12.0159 -12.0159 -11.9087 -11.9087 -11.8491 -11.8491 -11.5879 -11.5879
   -11.5879 -11.5879 -11.5833 -11.5833 -11.5833 -11.5833 -11.5036 -11.5035
   -11.3670 -11.3670 -11.3669 -11.3669 -11.3608 -11.3608 -11.2490 -11.2490
    -4.7968  -4.7968  -4.7968  -4.7968  -4.7581  -4.7580  -4.6850  -4.6850
    -4.6209  -4.6209  -4.3996  -4.3996  -4.3996  -4.3996  -4.3339  -4.3339
    -4.2646  -4.2646  -4.1711  -4.1711  -4.1711  -4.1711  -3.7440  -3.7440
    -3.4224  -3.4224  -3.4224  -3.4224  -3.2695  -3.2695  -3.2685  -3.2684
    -3.2684  -3.2684  -3.2273  -3.2273  -3.1480  -3.1480  -3.1480  -3.1480
    -3.0037  -3.0037  -2.5645  -2.5645  -2.5199  -2.5199  -2.5199  -2.5199
    -2.5096  -2.5096  -2.5096  -2.5096  -2.4860  -2.4860  -2.4406  -2.4405
    -2.3332  -2.3332  -2.3177  -2.3177  -2.0143  -2.0143  -1.9212  -1.9212
    -1.7397  -1.7397  -1.4017  -1.4017  -1.3552  -1.3552  -1.2937  -1.2937
    -1.2937  -1.2937  -1.2744  -1.2744  -1.2743  -1.2743  -1.2071  -1.2071
    -1.1045  -1.1045  -1.1045  -1.1045  -1.0610  -1.0610  -0.6271  -0.6271
    -0.6271  -0.6271  -0.5729  -0.5729  -0.4199  -0.4199  -0.2761  -0.2761
    -0.2593  -0.2593  -0.1634  -0.1634  -0.1634  -0.1634   0.1450   0.1450
     0.1561   0.1561   0.1562   0.1562   0.4964   0.4964   0.5284   0.5284

          k = 0.0833 0.1443 0.0000 (126309 PWs)   bands (ev):

   -60.2541 -60.2400 -60.2399 -60.2362 -60.2362 -60.2329 -60.2329 -60.2211
   -60.2196 -60.2196 -60.2187 -60.2187 -60.2182 -60.2173 -60.2173 -60.2163
   -34.5444 -34.5424 -34.5424 -34.4858 -34.4858 -34.4819 -34.4795 -34.4795
   -34.4699 -34.4036 -34.4036 -34.3806 -34.3697 -34.3697 -34.3609 -34.3522
   -34.3522 -34.3451 -34.3451 -34.3446 -34.3446 -34.3380 -34.3380 -34.3336
   -34.3336 -34.3230 -34.3230 -34.3151 -34.3142 -34.3113 -34.3113 -34.3094
   -34.3094 -34.3084 -34.3066 -34.3066 -34.3047 -34.2730 -34.2692 -34.2692
   -34.2362 -34.2362 -34.2298 -34.2298 -34.2198 -34.2198 -34.1901 -34.1864
   -13.3959 -12.7682 -12.7682 -12.5863 -12.5862 -12.4193 -12.4193 -12.0995
   -11.8438 -11.8438 -11.7702 -11.7702 -11.7647 -11.7035 -11.7035 -11.6768
   -11.6768 -11.5953 -11.5952 -11.5659 -11.5322 -11.5322 -11.4717 -11.4273
   -11.3906 -11.3906 -11.3847 -11.3847 -11.3723 -11.3270 -11.3270 -11.2983
    -5.0595  -5.0558  -5.0558  -4.9106  -4.4742  -4.4742  -4.4494  -4.4413
    -4.4387  -4.4387  -4.3586  -4.3582  -4.3582  -4.3528  -4.3528  -4.3432
    -4.3432  -4.3083  -4.3083  -4.1172  -4.1107  -4.1107  -4.0780  -4.0780
    -3.9745  -3.3875  -3.3823  -3.3823  -3.2148  -3.2148  -3.1589  -3.1589
    -3.1331  -3.1331  -3.0333  -3.0333  -3.0149  -3.0149  -2.9987  -2.9987
    -2.9740  -2.9719  -2.8938  -2.8938  -2.6542  -2.6542  -2.6227  -2.5871
    -2.5871  -2.5302  -2.5154  -2.5082  -2.5082  -2.5024  -2.5024  -2.4555
    -2.2767  -2.2767  -2.0172  -2.0095  -2.0095  -2.0079  -2.0079  -1.9556
    -1.9524  -1.9312  -1.9312  -1.7078  -1.7078  -1.3209  -1.3209  -1.2620
    -1.1924  -1.1874  -1.1874  -1.1742  -1.1742  -1.1452  -1.0645  -1.0645
    -1.0038  -1.0038  -0.9043  -0.8957  -0.8956  -0.7935  -0.7597  -0.7597
    -0.7331  -0.5974  -0.5974  -0.5322  -0.5322  -0.5047  -0.4076  -0.4076
    -0.1941  -0.1941  -0.0594  -0.0594  -0.0098   0.0203   0.0203   0.0573
     0.0573   0.0940   0.1097   0.1097   0.2044   0.2045   0.2857   0.6627

          k = 0.0833 0.2406 0.0000 (126309 PWs)   bands (ev):

   -60.2535 -60.2422 -60.2408 -60.2370 -60.2347 -60.2316 -60.2306 -60.2226
   -60.2210 -60.2196 -60.2193 -60.2189 -60.2181 -60.2174 -60.2164 -60.2156
   -34.5416 -34.5385 -34.5365 -34.4918 -34.4889 -34.4852 -34.4806 -34.4759
   -34.4623 -34.4262 -34.4154 -34.3828 -34.3794 -34.3719 -34.3602 -34.3568
   -34.3540 -34.3528 -34.3462 -34.3415 -34.3384 -34.3353 -34.3334 -34.3238
   -34.3176 -34.3173 -34.3140 -34.3112 -34.3107 -34.3106 -34.3100 -34.3097
   -34.3081 -34.3067 -34.3048 -34.3039 -34.3031 -34.2777 -34.2715 -34.2678
   -34.2416 -34.2410 -34.2357 -34.2298 -34.2186 -34.2144 -34.1963 -34.1879
   -13.3704 -12.8751 -12.8103 -12.6249 -12.5094 -12.3490 -12.2993 -12.0891
   -11.8872 -11.8608 -11.8563 -11.7854 -11.7584 -11.7388 -11.6751 -11.6727
   -11.6558 -11.6354 -11.6064 -11.5582 -11.5329 -11.4750 -11.4664 -11.4265
   -11.4217 -11.3997 -11.3909 -11.3874 -11.3668 -11.3295 -11.3021 -11.2753
    -5.0255  -5.0200  -5.0161  -4.8814  -4.5317  -4.5230  -4.4951  -4.4893
    -4.4315  -4.4269  -4.4248  -4.4242  -4.4104  -4.3811  -4.3685  -4.3299
    -4.3023  -4.3005  -4.2983  -4.1406  -4.1076  -4.0750  -4.0368  -3.9778
    -3.8266  -3.3754  -3.3667  -3.3629  -3.2848  -3.2272  -3.2180  -3.2098
    -3.1831  -3.1335  -3.0848  -3.0753  -3.0575  -3.0308  -3.0215  -3.0016
    -2.9891  -2.9711  -2.9197  -2.8092  -2.6392  -2.6378  -2.6052  -2.5761
    -2.5713  -2.5167  -2.5079  -2.4993  -2.4916  -2.4833  -2.4610  -2.3996
    -2.3250  -2.1146  -2.1105  -2.0959  -2.0751  -2.0742  -1.9813  -1.9258
    -1.8707  -1.8195  -1.8080  -1.7231  -1.5996  -1.4241  -1.3937  -1.3723
    -1.2366  -1.2298  -1.1861  -1.1743  -1.1717  -1.1529  -1.1498  -1.0767
    -0.9887  -0.9472  -0.9225  -0.9036  -0.8355  -0.8287  -0.7563  -0.7136
    -0.6581  -0.6373  -0.5764  -0.5297  -0.4999  -0.4706  -0.4577  -0.4329
    -0.2564  -0.2184  -0.1090  -0.0617  -0.0239  -0.0166  -0.0015   0.0486
     0.0651   0.1397   0.1570   0.2077   0.2218   0.2842   0.3695   0.6498

          k = 0.0833 0.3368 0.0000 (126340 PWs)   bands (ev):

   -60.2526 -60.2444 -60.2415 -60.2376 -60.2330 -60.2301 -60.2284 -60.2243
   -60.2224 -60.2202 -60.2195 -60.2190 -60.2180 -60.2174 -60.2157 -60.2150
   -34.5373 -34.5330 -34.5278 -34.4995 -34.4927 -34.4910 -34.4787 -34.4708
   -34.4535 -34.4476 -34.4268 -34.3959 -34.3811 -34.3776 -34.3611 -34.3590
   -34.3553 -34.3524 -34.3474 -34.3382 -34.3324 -34.3297 -34.3290 -34.3206
   -34.3169 -34.3157 -34.3124 -34.3111 -34.3106 -34.3100 -34.3079 -34.3068
   -34.3034 -34.3019 -34.2973 -34.2925 -34.2888 -34.2840 -34.2754 -34.2657
   -34.2473 -34.2466 -34.2429 -34.2304 -34.2182 -34.2093 -34.2056 -34.1900
   -13.3326 -12.9750 -12.8422 -12.6543 -12.4258 -12.2727 -12.1808 -12.0737
   -11.9518 -11.9278 -11.8736 -11.8438 -11.7970 -11.7045 -11.6939 -11.6668
   -11.6440 -11.6179 -11.6090 -11.5516 -11.5341 -11.5069 -11.4636 -11.4306
   -11.4215 -11.3912 -11.3893 -11.3830 -11.3610 -11.3332 -11.2827 -11.2574
    -4.9749  -4.9689  -4.9585  -4.8384  -4.5950  -4.5894  -4.5705  -4.5112
    -4.4991  -4.4933  -4.4832  -4.4070  -4.4063  -4.4059  -4.3815  -4.3108
    -4.3043  -4.2913  -4.2395  -4.1680  -4.1032  -4.0760  -3.9761  -3.8422
    -3.6734  -3.4296  -3.3567  -3.3439  -3.3368  -3.2894  -3.2325  -3.2114
    -3.1924  -3.1518  -3.1406  -3.1206  -3.1103  -3.1026  -3.0670  -3.0522
    -3.0421  -2.9513  -2.7904  -2.7260  -2.6936  -2.6384  -2.6039  -2.5613
    -2.5161  -2.5080  -2.4996  -2.4918  -2.4548  -2.4171  -2.3513  -2.3463
    -2.3290  -2.2290  -2.2240  -2.1766  -2.1582  -2.0487  -1.9192  -1.8865
    -1.7655  -1.6949  -1.6572  -1.6357  -1.5393  -1.5224  -1.4901  -1.4156
    -1.3052  -1.2892  -1.2231  -1.1766  -1.1599  -1.1534  -1.1480  -1.0931
    -1.0126  -1.0088  -0.9591  -0.9064  -0.8409  -0.8100  -0.7755  -0.7400
    -0.6924  -0.6456  -0.5540  -0.5482  -0.4705  -0.4249  -0.4068  -0.3786
    -0.2882  -0.2213  -0.1455  -0.1031  -0.0824  -0.0520   0.0180   0.0742
     0.0751   0.1739   0.1946   0.2114   0.3261   0.3569   0.4463   0.6287

          k = 0.0833 0.4330 0.0000 (126371 PWs)   bands (ev):

   -60.2514 -60.2464 -60.2420 -60.2380 -60.2313 -60.2286 -60.2264 -60.2260
   -60.2239 -60.2214 -60.2195 -60.2191 -60.2178 -60.2175 -60.2153 -60.2146
   -34.5315 -34.5263 -34.5163 -34.5080 -34.5012 -34.4924 -34.4768 -34.4677
   -34.4644 -34.4436 -34.4376 -34.4087 -34.3879 -34.3752 -34.3652 -34.3632
   -34.3563 -34.3482 -34.3467 -34.3348 -34.3294 -34.3249 -34.3241 -34.3200
   -34.3200 -34.3148 -34.3109 -34.3102 -34.3100 -34.3076 -34.3070 -34.3027
   -34.3025 -34.3011 -34.2916 -34.2853 -34.2814 -34.2808 -34.2682 -34.2630
   -34.2549 -34.2514 -34.2511 -34.2310 -34.2183 -34.2176 -34.2045 -34.1928
   -13.2828 -13.0667 -12.8637 -12.6741 -12.3368 -12.1916 -12.0659 -12.0533
   -12.0493 -11.9652 -11.9314 -11.8822 -11.8048 -11.7686 -11.6678 -11.6592
   -11.6292 -11.6106 -11.5641 -11.5480 -11.5461 -11.5359 -11.5013 -11.4497
   -11.4002 -11.3914 -11.3905 -11.3566 -11.3549 -11.3378 -11.2694 -11.2452
    -4.9095  -4.9046  -4.8855  -4.7829  -4.6671  -4.6567  -4.6380  -4.6076
    -4.5626  -4.5450  -4.4877  -4.4310  -4.3914  -4.3908  -4.3819  -4.3149
    -4.2868  -4.2868  -4.1979  -4.1854  -4.0978  -4.0798  -3.8970  -3.7095
    -3.5652  -3.5212  -3.3760  -3.3311  -3.3140  -3.3074  -3.2404  -3.2098
    -3.1953  -3.1948  -3.1862  -3.1855  -3.1798  -3.1433  -3.1042  -3.0927
    -3.0866  -2.9237  -2.7164  -2.6533  -2.6519  -2.6153  -2.5792  -2.5446
    -2.5143  -2.5086  -2.5045  -2.4241  -2.4169  -2.3824  -2.3643  -2.3639
    -2.3464  -2.3032  -2.2625  -2.2494  -2.1672  -2.1168  -1.8348  -1.8149
    -1.7056  -1.6917  -1.6141  -1.5127  -1.4979  -1.4641  -1.4468  -1.3813
    -1.3635  -1.3270  -1.2778  -1.2010  -1.1641  -1.1243  -1.1161  -1.1118
    -1.0863  -1.0776  -1.0442  -1.0015  -0.9707  -0.8798  -0.7382  -0.7244
    -0.7228  -0.5926  -0.5397  -0.5197  -0.4756  -0.4000  -0.3343  -0.3137
    -0.2881  -0.2042  -0.1651  -0.1472  -0.1347  -0.0965   0.0422   0.0851
     0.0899   0.1963   0.2141   0.2206   0.4131   0.4176   0.5062   0.5971

          k = 0.0833 0.5292 0.0000 (126351 PWs)   bands (ev):

   -60.2500 -60.2483 -60.2422 -60.2382 -60.2295 -60.2278 -60.2271 -60.2255
   -60.2245 -60.2228 -60.2194 -60.2193 -60.2177 -60.2176 -60.2150 -60.2144
   -34.5245 -34.5185 -34.5165 -34.5100 -34.5023 -34.4931 -34.4860 -34.4756
   -34.4566 -34.4476 -34.4328 -34.4211 -34.3916 -34.3723 -34.3690 -34.3654
   -34.3567 -34.3486 -34.3438 -34.3312 -34.3276 -34.3262 -34.3231 -34.3211
   -34.3177 -34.3107 -34.3105 -34.3101 -34.3073 -34.3071 -34.3070 -34.3020
   -34.3006 -34.3005 -34.2948 -34.2873 -34.2741 -34.2706 -34.2639 -34.2604
   -34.2596 -34.2557 -34.2492 -34.2323 -34.2315 -34.2184 -34.2001 -34.1962
   -13.2214 -13.1491 -12.8745 -12.6841 -12.2434 -12.1471 -12.1068 -12.0283
   -12.0196 -11.9988 -11.9572 -11.8865 -11.8573 -11.8087 -11.6502 -11.6401
   -11.6291 -11.5890 -11.5754 -11.5418 -11.5387 -11.5384 -11.5219 -11.4835
   -11.3915 -11.3912 -11.3848 -11.3489 -11.3433 -11.3431 -11.2626 -11.2390
    -4.8320  -4.8301  -4.8001  -4.7492  -4.7460  -4.7166  -4.7059  -4.6598
    -4.6420  -4.5681  -4.4740  -4.4544  -4.3956  -4.3820  -4.3564  -4.3331
    -4.2846  -4.2589  -4.2288  -4.1521  -4.0916  -4.0853  -3.8009  -3.6897
    -3.5854  -3.4739  -3.3779  -3.2986  -3.2791  -3.2768  -3.2584  -3.2558
    -3.2509  -3.2385  -3.2321  -3.2254  -3.1708  -3.1633  -3.1396  -3.1288
    -3.0831  -2.9091  -2.7240  -2.6038  -2.5640  -2.5283  -2.5278  -2.5156
    -2.5143  -2.5120  -2.5100  -2.4800  -2.4490  -2.3834  -2.3827  -2.3699
    -2.3694  -2.3631  -2.3140  -2.2786  -2.1632  -2.0067  -1.8490  -1.8479
    -1.7715  -1.6976  -1.4836  -1.4632  -1.3958  -1.3832  -1.3469  -1.3100
    -1.3073  -1.2906  -1.2769  -1.2757  -1.2607  -1.1791  -1.1764  -1.1486
    -1.1308  -1.0877  -1.0819  -1.0759  -1.0457  -1.0274  -0.7177  -0.7135
    -0.6475  -0.5790  -0.5570  -0.5396  -0.4250  -0.3995  -0.2947  -0.2774
    -0.2593  -0.2093  -0.1740  -0.1679  -0.1568  -0.1371   0.0547   0.0928
     0.0953   0.2088   0.2139   0.2338   0.4441   0.4932   0.5394   0.5527

          k = 0.1667 0.2887 0.0000 (126343 PWs)   bands (ev):

   -60.2527 -60.2431 -60.2430 -60.2353 -60.2353 -60.2293 -60.2293 -60.2243
   -60.2209 -60.2209 -60.2196 -60.2196 -60.2178 -60.2165 -60.2165 -60.2149
   -34.5387 -34.5312 -34.5312 -34.4961 -34.4961 -34.4825 -34.4825 -34.4764
   -34.4520 -34.4371 -34.4371 -34.3838 -34.3779 -34.3742 -34.3742 -34.3584
   -34.3584 -34.3442 -34.3442 -34.3428 -34.3428 -34.3308 -34.3308 -34.3207
   -34.3138 -34.3138 -34.3112 -34.3112 -34.3076 -34.3050 -34.3050 -34.3043
   -34.3043 -34.3018 -34.3016 -34.3016 -34.2936 -34.2844 -34.2697 -34.2697
   -34.2464 -34.2464 -34.2366 -34.2366 -34.2133 -34.2132 -34.2040 -34.1897
   -13.3389 -12.9135 -12.9135 -12.5417 -12.5417 -12.2300 -12.2300 -12.0763
   -11.9544 -11.9027 -11.9027 -11.7514 -11.7513 -11.7506 -11.7506 -11.6557
   -11.6557 -11.6278 -11.6278 -11.5416 -11.5076 -11.4791 -11.4791 -11.4255
   -11.4254 -11.4058 -11.4058 -11.3808 -11.3572 -11.3066 -11.3066 -11.2559
    -4.9839  -4.9722  -4.9722  -4.8454  -4.6015  -4.5444  -4.5444  -4.4970
    -4.4970  -4.4583  -4.4583  -4.4338  -4.4338  -4.4098  -4.4098  -4.3953
    -4.2812  -4.2812  -4.2168  -4.1792  -4.0231  -4.0231  -3.9815  -3.9815
    -3.6683  -3.3625  -3.3606  -3.3606  -3.3430  -3.3430  -3.2232  -3.2232
    -3.1655  -3.1655  -3.1427  -3.1426  -3.0856  -3.0856  -3.0753  -3.0326
    -2.8875  -2.8875  -2.8703  -2.8703  -2.7545  -2.6468  -2.5853  -2.5852
    -2.5175  -2.4792  -2.4792  -2.4676  -2.4676  -2.4114  -2.4114  -2.3414
    -2.1879  -2.1879  -2.1445  -2.1437  -2.1437  -2.1375  -2.1375  -1.8932
    -1.6840  -1.6736  -1.6736  -1.6114  -1.6114  -1.5160  -1.4691  -1.4691
    -1.3090  -1.2191  -1.2191  -1.1833  -1.1547  -1.1547  -1.1516  -1.1516
    -1.0033  -0.9073  -0.9073  -0.8691  -0.8691  -0.8358  -0.8335  -0.8335
    -0.6330  -0.5604  -0.5604  -0.5570  -0.4757  -0.4757  -0.4068  -0.4068
    -0.2559  -0.2559  -0.1042  -0.0734  -0.0734  -0.0024  -0.0024   0.0074
     0.0075   0.1856   0.2646   0.2646   0.2819   0.2819   0.4507   0.6324

          k = 0.1667 0.3849 0.0000 (126340 PWs)   bands (ev):

   -60.2517 -60.2451 -60.2437 -60.2358 -60.2335 -60.2280 -60.2272 -60.2261
   -60.2223 -60.2208 -60.2207 -60.2199 -60.2175 -60.2167 -60.2159 -60.2145
   -34.5342 -34.5246 -34.5212 -34.5044 -34.4992 -34.4906 -34.4783 -34.4721
   -34.4576 -34.4475 -34.4407 -34.3939 -34.3882 -34.3758 -34.3674 -34.3627
   -34.3596 -34.3485 -34.3438 -34.3392 -34.3340 -34.3281 -34.3266 -34.3243
   -34.3166 -34.3135 -34.3133 -34.3118 -34.3070 -34.3053 -34.3038 -34.3009
   -34.2977 -34.2946 -34.2925 -34.2918 -34.2831 -34.2806 -34.2731 -34.2672
   -34.2527 -34.2514 -34.2445 -34.2377 -34.2145 -34.2128 -34.2082 -34.1922
   -13.2952 -13.0090 -12.9411 -12.5651 -12.4521 -12.1556 -12.1135 -12.0584
   -12.0554 -11.9416 -11.9139 -11.8315 -11.7604 -11.7400 -11.7222 -11.7145
   -11.6754 -11.5975 -11.5820 -11.5499 -11.5267 -11.4850 -11.4608 -11.4395
   -11.4309 -11.4239 -11.4111 -11.3509 -11.3475 -11.3127 -11.2897 -11.2416
    -4.9260  -4.9146  -4.9079  -4.7965  -4.6525  -4.6136  -4.5845  -4.5531
    -4.5496  -4.5099  -4.4956  -4.4896  -4.4679  -4.4514  -4.3808  -4.3615
    -4.2753  -4.2656  -4.2208  -4.1327  -4.0126  -3.9862  -3.9517  -3.8561
    -3.5058  -3.5035  -3.4404  -3.3435  -3.3163  -3.3142  -3.2275  -3.2121
    -3.2003  -3.1943  -3.1797  -3.1687  -3.1503  -3.1423  -3.1153  -3.0734
    -2.9735  -2.8315  -2.8093  -2.8077  -2.7397  -2.6365  -2.5732  -2.5609
    -2.5138  -2.4822  -2.4763  -2.4510  -2.4330  -2.3392  -2.3006  -2.2916
    -2.2892  -2.2571  -2.2534  -2.2367  -2.2193  -2.1491  -1.9269  -1.8481
    -1.6524  -1.6457  -1.5612  -1.5579  -1.5043  -1.4982  -1.4972  -1.4879
    -1.3766  -1.2709  -1.2282  -1.2169  -1.1800  -1.1605  -1.1210  -1.1199
    -1.0791  -1.0360  -0.9571  -0.9195  -0.9059  -0.8346  -0.8306  -0.8201
    -0.7252  -0.6018  -0.5644  -0.4818  -0.4600  -0.3902  -0.3751  -0.3429
    -0.2606  -0.2305  -0.1348  -0.1182  -0.0641  -0.0464  -0.0446   0.0174
     0.0175   0.2198   0.2779   0.2962   0.3447   0.3624   0.5203   0.6054

          k = 0.1667 0.4811 0.0000 (126406 PWs)   bands (ev):

   -60.2504 -60.2471 -60.2440 -60.2360 -60.2317 -60.2279 -60.2266 -60.2253
   -60.2237 -60.2220 -60.2206 -60.2201 -60.2173 -60.2168 -60.2156 -60.2142
   -34.5282 -34.5169 -34.5129 -34.5087 -34.5010 -34.4995 -34.4766 -34.4725
   -34.4685 -34.4570 -34.4285 -34.4021 -34.4010 -34.3732 -34.3666 -34.3631
   -34.3604 -34.3511 -34.3443 -34.3355 -34.3280 -34.3252 -34.3231 -34.3226
   -34.3194 -34.3159 -34.3132 -34.3123 -34.3065 -34.3056 -34.3030 -34.3019
   -34.3003 -34.2907 -34.2902 -34.2802 -34.2780 -34.2728 -34.2641 -34.2610
   -34.2605 -34.2561 -34.2532 -34.2386 -34.2277 -34.2127 -34.2034 -34.1954
   -13.2397 -13.0959 -12.9578 -12.5792 -12.3572 -12.1573 -12.0773 -12.0357
   -12.0020 -11.9770 -11.9206 -11.9139 -11.8037 -11.7658 -11.7268 -11.6941
   -11.6754 -11.5924 -11.5652 -11.5384 -11.5135 -11.4963 -11.4926 -11.4619
   -11.4218 -11.4154 -11.4152 -11.3378 -11.3327 -11.3201 -11.2794 -11.2328
    -4.8536  -4.8461  -4.8299  -4.7359  -4.6908  -4.6836  -4.6779  -4.6462
    -4.5891  -4.5502  -4.5167  -4.5031  -4.4935  -4.4623  -4.3457  -4.3288
    -4.2822  -4.2638  -4.2561  -4.0641  -4.0044  -3.9915  -3.8623  -3.7363
    -3.6362  -3.5280  -3.3467  -3.3183  -3.2843  -3.2828  -3.2574  -3.2478
    -3.2382  -3.2297  -3.1953  -3.1946  -3.1745  -3.1446  -3.1399  -3.1157
    -3.0756  -2.8285  -2.8067  -2.7431  -2.6047  -2.6025  -2.5369  -2.5352
    -2.5065  -2.4932  -2.4864  -2.4359  -2.4148  -2.4093  -2.3914  -2.3475
    -2.3179  -2.2860  -2.2836  -2.2518  -2.1543  -2.0980  -1.7965  -1.7914
    -1.7041  -1.6808  -1.6467  -1.5268  -1.4404  -1.4235  -1.3833  -1.3186
    -1.3061  -1.3038  -1.2689  -1.2573  -1.2519  -1.1761  -1.1704  -1.1663
    -1.0798  -1.0792  -1.0474  -0.9749  -0.9716  -0.9110  -0.8080  -0.8064
    -0.7690  -0.6519  -0.5112  -0.4589  -0.4214  -0.3662  -0.3329  -0.2966
    -0.2358  -0.1894  -0.1532  -0.1468  -0.1290  -0.0937  -0.0296   0.0260
     0.0286   0.2439   0.2711   0.3156   0.3872   0.4462   0.5668   0.5681

          k = 0.1667 0.5774 0.0000 (126363 PWs)   bands (ev):

   -60.2489 -60.2488 -60.2441 -60.2361 -60.2298 -60.2298 -60.2251 -60.2251
   -60.2235 -60.2235 -60.2204 -60.2204 -60.2170 -60.2170 -60.2154 -60.2141
   -34.5210 -34.5210 -34.5084 -34.5084 -34.5016 -34.4937 -34.4937 -34.4671
   -34.4654 -34.4654 -34.4156 -34.4156 -34.4035 -34.3701 -34.3701 -34.3616
   -34.3606 -34.3520 -34.3445 -34.3318 -34.3318 -34.3223 -34.3223 -34.3191
   -34.3191 -34.3128 -34.3128 -34.3122 -34.3122 -34.3060 -34.3060 -34.3028
   -34.3001 -34.2887 -34.2840 -34.2840 -34.2697 -34.2697 -34.2627 -34.2627
   -34.2604 -34.2604 -34.2433 -34.2433 -34.2390 -34.2127 -34.1991 -34.1991
   -13.1730 -13.1730 -12.9634 -12.5839 -12.2585 -12.2585 -12.0085 -12.0085
   -11.9963 -11.9963 -11.9228 -11.8978 -11.8978 -11.7677 -11.7114 -11.7114
   -11.6345 -11.6345 -11.5313 -11.5313 -11.5021 -11.5021 -11.4981 -11.4980
   -11.4190 -11.4190 -11.4070 -11.3286 -11.3286 -11.3266 -11.2759 -11.2298
    -4.7701  -4.7701  -4.7695  -4.7695  -4.7413  -4.7413  -4.6941  -4.6658
    -4.6658  -4.5375  -4.5375  -4.5149  -4.4925  -4.4660  -4.3061  -4.3061
    -4.3010  -4.3010  -4.2529  -4.0362  -3.9975  -3.9975  -3.7565  -3.7565
    -3.6264  -3.6264  -3.2939  -3.2867  -3.2867  -3.2577  -3.2577  -3.2424
    -3.2423  -3.2423  -3.2004  -3.2004  -3.1716  -3.1715  -3.1517  -3.1517
    -3.1363  -2.8331  -2.7982  -2.7163  -2.5375  -2.5375  -2.5116  -2.5116
    -2.4969  -2.4969  -2.4755  -2.4755  -2.4720  -2.4720  -2.4008  -2.3705
    -2.3704  -2.3107  -2.2657  -2.2380  -2.1557  -1.9455  -1.9455  -1.7239
    -1.7239  -1.6958  -1.5346  -1.4768  -1.4767  -1.4404  -1.3412  -1.3412
    -1.3151  -1.2732  -1.2732  -1.2714  -1.1716  -1.1716  -1.1701  -1.1701
    -1.1075  -1.1075  -1.0299  -1.0299  -1.0296  -1.0296  -0.8007  -0.8007
    -0.7082  -0.7082  -0.4757  -0.4757  -0.3818  -0.3818  -0.3127  -0.2797
    -0.1890  -0.1890  -0.1580  -0.1580  -0.1422  -0.1422  -0.0239   0.0307
     0.0307   0.2604   0.2604   0.3221   0.4022   0.5143   0.5143   0.5852

          k = 0.2500 0.4330 0.0000 (126379 PWs)   bands (ev):

   -60.2505 -60.2457 -60.2457 -60.2339 -60.2339 -60.2280 -60.2260 -60.2260
   -60.2220 -60.2220 -60.2211 -60.2211 -60.2171 -60.2162 -60.2161 -60.2141
   -34.5294 -34.5136 -34.5136 -34.5077 -34.5077 -34.4869 -34.4869 -34.4668
   -34.4668 -34.4656 -34.4270 -34.4046 -34.3827 -34.3826 -34.3735 -34.3637
   -34.3637 -34.3399 -34.3399 -34.3369 -34.3369 -34.3281 -34.3240 -34.3240
   -34.3161 -34.3161 -34.3141 -34.3141 -34.3062 -34.3043 -34.3042 -34.3024
   -34.3002 -34.2858 -34.2858 -34.2748 -34.2748 -34.2736 -34.2702 -34.2702
   -34.2578 -34.2578 -34.2459 -34.2459 -34.2261 -34.2076 -34.2076 -34.1951
   -13.2458 -13.0319 -13.0319 -12.4697 -12.4697 -12.1607 -12.0422 -12.0422
   -12.0382 -11.9509 -11.9509 -11.8155 -11.8155 -11.7490 -11.7490 -11.7212
   -11.7212 -11.5936 -11.5528 -11.5528 -11.5039 -11.4570 -11.4570 -11.4513
   -11.4513 -11.4391 -11.4391 -11.3341 -11.3292 -11.2987 -11.2987 -11.2307
    -4.8609  -4.8457  -4.8457  -4.7424  -4.6916  -4.6236  -4.6236  -4.5931
    -4.5931  -4.5819  -4.5819  -4.5282  -4.5282  -4.4281  -4.4281  -4.3193
    -4.2755  -4.2549  -4.2549  -4.0293  -3.9299  -3.9299  -3.8725  -3.8725
    -3.5824  -3.5824  -3.3353  -3.3252  -3.2854  -3.2854  -3.2683  -3.2378
    -3.2378  -3.2175  -3.2175  -3.1697  -3.1697  -3.1642  -3.1642  -3.1110
    -2.9033  -2.9033  -2.8642  -2.7034  -2.7034  -2.6165  -2.5388  -2.5388
    -2.5045  -2.4584  -2.4584  -2.4517  -2.4517  -2.3727  -2.3727  -2.3452
    -2.3452  -2.3353  -2.2421  -2.1915  -2.1915  -1.9299  -1.9299  -1.7982
    -1.7776  -1.5890  -1.5890  -1.5219  -1.5219  -1.4601  -1.4333  -1.3168
    -1.3168  -1.2770  -1.2770  -1.2488  -1.2092  -1.2092  -1.1854  -1.1713
    -1.0784  -1.0784  -0.9074  -0.9074  -0.8957  -0.8957  -0.8947  -0.8947
    -0.7660  -0.7660  -0.4953  -0.4188  -0.3887  -0.3887  -0.3287  -0.3287
    -0.2104  -0.2104  -0.1521  -0.0993  -0.0993  -0.0465  -0.0465  -0.0379
    -0.0379   0.2563   0.3289   0.3289   0.3869   0.3869   0.5714   0.5782

          k = 0.2500 0.5292 0.0000 (126356 PWs)   bands (ev):

   -60.2491 -60.2475 -60.2459 -60.2340 -60.2319 -60.2299 -60.2247 -60.2241
   -60.2233 -60.2225 -60.2217 -60.2214 -60.2168 -60.2164 -60.2159 -60.2139
   -34.5233 -34.5159 -34.5094 -34.5050 -34.5001 -34.4960 -34.4844 -34.4816
   -34.4748 -34.4610 -34.4127 -34.4113 -34.3978 -34.3797 -34.3707 -34.3674
   -34.3642 -34.3403 -34.3383 -34.3360 -34.3320 -34.3249 -34.3214 -34.3203
   -34.3187 -34.3170 -34.3155 -34.3149 -34.3133 -34.3055 -34.3048 -34.3037
   -34.2998 -34.2799 -34.2751 -34.2745 -34.2718 -34.2666 -34.2657 -34.2640
   -34.2625 -34.2566 -34.2547 -34.2468 -34.2402 -34.2075 -34.2029 -34.1987
   -13.1850 -13.1135 -13.0434 -12.4786 -12.3696 -12.2661 -12.0134 -11.9842
   -11.9680 -11.9555 -11.9349 -11.8920 -11.8364 -11.7962 -11.7738 -11.7245
   -11.6799 -11.6372 -11.5220 -11.5109 -11.4899 -11.4837 -11.4727 -11.4661
   -11.4522 -11.4462 -11.4342 -11.3213 -11.3182 -11.3094 -11.2916 -11.2252
    -4.7814  -4.7749  -4.7649  -4.7114  -4.6994  -4.6906  -4.6778  -4.6755
    -4.6207  -4.6062  -4.6053  -4.5972  -4.5375  -4.4519  -4.3814  -4.3298
    -4.2842  -4.2615  -4.2444  -3.9570  -3.9096  -3.8905  -3.8294  -3.7661
    -3.7128  -3.6693  -3.3478  -3.3019  -3.2730  -3.2581  -3.2558  -3.2505
    -3.2321  -3.2098  -3.2030  -3.1848  -3.1705  -3.1671  -3.1642  -3.1453
    -3.0234  -2.8832  -2.8576  -2.6844  -2.5739  -2.5716  -2.5053  -2.4937
    -2.4923  -2.4897  -2.4772  -2.4713  -2.4493  -2.4382  -2.4280  -2.4274
    -2.4202  -2.3905  -2.2149  -2.1551  -2.0485  -1.9307  -1.9103  -1.7376
    -1.7021  -1.6673  -1.6035  -1.5423  -1.4729  -1.4655  -1.3982  -1.3748
    -1.3119  -1.3025  -1.2796  -1.2349  -1.2009  -1.1926  -1.1550  -1.1332
    -1.0260  -1.0243  -1.0169  -0.9648  -0.9613  -0.9466  -0.8860  -0.8842
    -0.8595  -0.8118  -0.4415  -0.4056  -0.3687  -0.3503  -0.3375  -0.3012
    -0.1677  -0.1531  -0.1520  -0.1357  -0.1106  -0.0938  -0.0897  -0.0365
    -0.0344   0.2856   0.3094   0.3568   0.3993   0.4634   0.5247   0.6103

          k = 0.3333 0.5774 0.0000 (126429 PWs)   bands (ev):

   -60.2476 -60.2476 -60.2476 -60.2320 -60.2320 -60.2320 -60.2229 -60.2229
   -60.2229 -60.2229 -60.2229 -60.2229 -60.2163 -60.2163 -60.2163 -60.2139
   -34.5169 -34.5169 -34.5169 -34.4910 -34.4909 -34.4909 -34.4909 -34.4909
   -34.4909 -34.4577 -34.4156 -34.3963 -34.3963 -34.3963 -34.3676 -34.3676
   -34.3676 -34.3362 -34.3362 -34.3362 -34.3256 -34.3256 -34.3256 -34.3179
   -34.3179 -34.3179 -34.3179 -34.3179 -34.3179 -34.3045 -34.3045 -34.3045
   -34.2997 -34.2704 -34.2704 -34.2704 -34.2704 -34.2704 -34.2704 -34.2553
   -34.2553 -34.2553 -34.2550 -34.2550 -34.2550 -34.2028 -34.2028 -34.2028
   -13.1194 -13.1194 -13.1194 -12.3737 -12.3737 -12.3737 -11.9866 -11.9866
   -11.9866 -11.8660 -11.8660 -11.8660 -11.8660 -11.8660 -11.8659 -11.6814
   -11.6814 -11.6814 -11.4821 -11.4820 -11.4820 -11.4820 -11.4820 -11.4820
   -11.4572 -11.4571 -11.4571 -11.3133 -11.3057 -11.3057 -11.3057 -11.2226
    -4.7208  -4.6948  -4.6948  -4.6948  -4.6938  -4.6938  -4.6938  -4.6938
    -4.6938  -4.6938  -4.6108  -4.6107  -4.6107  -4.3934  -4.3934  -4.3934
    -4.2544  -4.2544  -4.2544  -3.9084  -3.7973  -3.7973  -3.7973  -3.7973
    -3.7973  -3.7973  -3.3940  -3.2819  -3.2819  -3.2818  -3.2224  -3.2224
    -3.2224  -3.2224  -3.2224  -3.2224  -3.1645  -3.1645  -3.1645  -3.0028
    -3.0028  -3.0028  -2.8982  -2.5634  -2.5634  -2.5634  -2.5146  -2.5146
    -2.5146  -2.4660  -2.4660  -2.4660  -2.4556  -2.4556  -2.4556  -2.4556
    -2.4556  -2.4556  -2.2012  -2.0302  -2.0302  -2.0302  -1.7013  -1.7013
    -1.7013  -1.6744  -1.6744  -1.6744  -1.4809  -1.4061  -1.4061  -1.4061
    -1.3266  -1.3266  -1.3266  -1.2128  -1.2128  -1.2128  -0.9830  -0.9830
    -0.9830  -0.9830  -0.9830  -0.9830  -0.9592  -0.9592  -0.9592  -0.9592
    -0.9592  -0.9592  -0.3869  -0.3869  -0.3869  -0.3265  -0.3265  -0.3265
    -0.1320  -0.1320  -0.1320  -0.0988  -0.0988  -0.0988  -0.0988  -0.0988
    -0.0988   0.3229   0.3229   0.3229   0.4691   0.4691   0.4691   0.6254

     highest occupied level (ev):     0.6716

!    total energy              =   -3003.72433620 Ry
     estimated scf accuracy    <          3.9E-11 Ry

     The total energy is the sum of the following terms:
     one-electron contribution =  -11356.57663840 Ry
     hartree contribution      =    5709.22830659 Ry
     xc contribution           =    -580.22528710 Ry
     ewald contribution        =    3223.84928271 Ry

     convergence has been achieved in   3 iterations

     negative rho (up, down):  2.808E-03 0.000E+00

     Forces acting on atoms (cartesian axes, Ry/au):

     atom    1 type  1   force =     0.00000140    0.00000081   -0.00000008
     atom    2 type  1   force =     0.00000000    0.00000153   -0.00000006
     atom    3 type  1   force =     0.00000047    0.00000027   -0.00000006
     atom    4 type  1   force =     0.00000132   -0.00000076   -0.00000006
     atom    5 type  1   force =     0.00000151    0.00000017   -0.00000010
     atom    6 type  1   force =     0.00000090    0.00000122   -0.00000010
     atom    7 type  1   force =    -0.00000047    0.00000027   -0.00000006
     atom    8 type  1   force =    -0.00000000   -0.00000055   -0.00000006
     atom    9 type  1   force =    -0.00000151    0.00000017   -0.00000010
     atom   10 type  1   force =     0.00000000    0.00000000   -0.00000010
     atom   11 type  1   force =    -0.00000061   -0.00000139   -0.00000010
     atom   12 type  1   force =    -0.00000132   -0.00000076   -0.00000006
     atom   13 type  1   force =    -0.00000140    0.00000081   -0.00000008
     atom   14 type  1   force =    -0.00000090    0.00000122   -0.00000010
     atom   15 type  1   force =     0.00000061   -0.00000139   -0.00000010
     atom   16 type  1   force =     0.00000000   -0.00000161   -0.00000008
     atom   17 type  2   force =     0.00000000   -0.00000082   -0.00008767
     atom   18 type  2   force =    -0.00000048   -0.00000043   -0.00008747
     atom   19 type  2   force =    -0.00000062   -0.00000020   -0.00008747
     atom   20 type  2   force =    -0.00000071    0.00000041   -0.00008767
     atom   21 type  2   force =    -0.00000020   -0.00000011   -0.00008803
     atom   22 type  2   force =     0.00000048   -0.00000043   -0.00008747
     atom   23 type  2   force =    -0.00000000   -0.00000000   -0.00008742
     atom   24 type  2   force =    -0.00000013    0.00000064   -0.00008747
     atom   25 type  2   force =     0.00000000    0.00000119   -0.00008947
     atom   26 type  2   force =     0.00000103   -0.00000060   -0.00008947
     atom   27 type  2   force =     0.00000062   -0.00000020   -0.00008747
     atom   28 type  2   force =     0.00000013    0.00000064   -0.00008747
     atom   29 type  2   force =     0.00000020   -0.00000011   -0.00008803
     atom   30 type  2   force =    -0.00000103   -0.00000060   -0.00008947
     atom   31 type  2   force =     0.00000000    0.00000023   -0.00008803
     atom   32 type  2   force =     0.00000071    0.00000041   -0.00008767
     atom   33 type  2   force =     0.00000000   -0.00000082    0.00008775
     atom   34 type  2   force =    -0.00000047   -0.00000043    0.00008754
     atom   35 type  2   force =    -0.00000061   -0.00000019    0.00008754
     atom   36 type  2   force =    -0.00000071    0.00000041    0.00008775
     atom   37 type  2   force =    -0.00000022   -0.00000012    0.00008814
     atom   38 type  2   force =     0.00000047   -0.00000043    0.00008754
     atom   39 type  2   force =     0.00000000    0.00000000    0.00008747
     atom   40 type  2   force =    -0.00000013    0.00000062    0.00008754
     atom   41 type  2   force =     0.00000000    0.00000114    0.00008956
     atom   42 type  2   force =     0.00000099   -0.00000057    0.00008956
     atom   43 type  2   force =     0.00000061   -0.00000019    0.00008754
     atom   44 type  2   force =     0.00000013    0.00000062    0.00008754
     atom   45 type  2   force =     0.00000022   -0.00000012    0.00008814
     atom   46 type  2   force =    -0.00000099   -0.00000057    0.00008956
     atom   47 type  2   force =     0.00000000    0.00000025    0.00008814
     atom   48 type  2   force =     0.00000071    0.00000041    0.00008775

     Total force =     0.000498     Total SCF correction =     0.000016

     Writing all to output data dir /home/nihal/Desktop/Otptf/Trial_2.save/ :
     XML data file, charge density, pseudopotentials, collected wavefunctions

     init_run     :      3.53s CPU      4.45s WALL (       1 calls)
     electrons    :   1213.50s CPU   1243.19s WALL (       1 calls)
     forces       :     64.11s CPU     65.21s WALL (       1 calls)

     Called by init_run:
     wfcinit      :      0.02s CPU      0.02s WALL (       1 calls)
     potinit      :      0.57s CPU      0.67s WALL (       1 calls)
     hinit0       :      0.58s CPU      0.62s WALL (       1 calls)

     Called by electrons:
     c_bands      :   1075.51s CPU   1097.50s WALL (       4 calls)
     sum_band     :    131.50s CPU    136.63s WALL (       4 calls)
     v_of_rho     :      1.61s CPU      1.83s WALL (       4 calls)
     newd         :      6.56s CPU      9.61s WALL (       4 calls)
     mix_rho      :      0.16s CPU      0.19s WALL (       4 calls)

     Called by c_bands:
     init_us_2    :     19.20s CPU     19.29s WALL (     171 calls)
     cegterg      :   1050.00s CPU   1068.66s WALL (      76 calls)

     Called by *egterg:
     cdiaghg      :      8.14s CPU      8.25s WALL (     336 calls)
     h_psi        :    538.05s CPU    549.09s WALL (     374 calls)
     s_psi        :     96.09s CPU     96.10s WALL (     374 calls)
     g_psi        :      1.92s CPU      1.93s WALL (     298 calls)

     Called by h_psi:
     h_psi:calbec :    155.36s CPU    155.50s WALL (     374 calls)
     vloc_psi     :    284.02s CPU    292.85s WALL (     374 calls)
                                        0.00s GPU  (     374 calls)
     add_vuspsi   :     95.79s CPU     95.80s WALL (     374 calls)

     General routines
     calbec       :    263.75s CPU    263.98s WALL (     526 calls)
     fft          :      1.92s CPU      2.08s WALL (      62 calls)
     ffts         :      0.14s CPU      0.14s WALL (       8 calls)
     fftw         :    260.35s CPU    268.12s WALL (  103624 calls)
     interpolate  :      0.23s CPU      0.25s WALL (       4 calls)
     davcio       :      0.05s CPU      2.96s WALL (      19 calls)

     Parallel routines

     PWSCF        :  21m22.34s CPU  21m56.06s WALL


   This run was terminated on:  16: 1: 3   1Jul2026            

=------------------------------------------------------------------------------=
   JOB DONE.
=------------------------------------------------------------------------------=
