
     Program PWSCF v.7.5 starts on  5Jul2026 at 18:19:45 

     This program is part of the open-source Quantum ESPRESSO suite
     for quantum simulation of materials; please cite
         "P. Giannozzi et al., J. Phys.:Condens. Matter 21 395502 (2009);
         "P. Giannozzi et al., J. Phys.:Condens. Matter 29 465901 (2017);
         "P. Giannozzi et al., J. Chem. Phys. 152 154105 (2020);
          URL http://www.quantum-espresso.org", 
     in publications or presentations arising from this work. More details at
     http://www.quantum-espresso.org/quote

     Parallel version (MPI), running on     8 processors

     MPI processes distributed on     1 nodes
     27854 MiB available memory on the printing compute node when the environment starts

     Reading input from MoSt_bands.in

     Current dimensions of program PWSCF are:
     Max number of different atomic species (ntypx) = 10
     Max number of k-points (npk) =  40000
     Max angular momentum in pseudopotentials (lmaxx) =  4
     Message from routine input:
     WARNING: "startingwfc" set to atomic+random may spoil restart
     Found identity + (  0.0000  0.2500 -0.0000) symmetry
     This is a supercell, fractional translations are disabled
     Message from routine setup:
     using ibrav=0 with symmetry is DISCOURAGED, use correct ibrav instead

     R & G space division:  proc/nbgrp/npool/nimage =       8
     Subspace diagonalization in iterative solution of the eigenvalue problem:
     one sub-group per band group will be used
     scalapack distributed-memory algorithm (size of sub-group:  2*  2 procs)


     Parallelization info
     --------------------
     sticks:   dense  smooth     PW     G-vecs:    dense   smooth      PW
     Min        2503    1301    339               336908   126317   16843
     Max        2504    1302    340               336911   126322   16850
     Sum       20029   10411   2713              2695269  1010563  134763

     Using Slab Decomposition



     bravais-lattice index     =            0
     lattice parameter (alat)  =      24.1153  a.u.
     unit-cell volume          =   14275.9760 (a.u.)^3
     number of atoms/cell      =           48
     number of atomic types    =            2
     number of electrons       =       416.00
     number of Kohn-Sham states=          260
     kinetic-energy cutoff     =      65.0000  Ry
     charge density cutoff     =     500.0000  Ry
     Exchange-correlation=  SLA  PW   PBX  PBC
                           (   1   4   3   4   0   0   0)

     celldm(1)=  24.115292  celldm(2)=   0.000000  celldm(3)=   0.000000
     celldm(4)=   0.000000  celldm(5)=   0.000000  celldm(6)=   0.000000

     crystal axes: (cart. coord. in units of alat)
               a(1) = (   1.000000   0.000000   0.000000 )  
               a(2) = (  -0.500000   0.866025   0.000000 )  
               a(3) = (   0.000000   0.000000   1.175432 )  

     reciprocal axes: (cart. coord. in units 2 pi/alat)
               b(1) = (  1.000000  0.577350 -0.000000 )  
               b(2) = (  0.000000  1.154701  0.000000 )  
               b(3) = (  0.000000 -0.000000  0.850751 )  


     PseudoPot. # 1 for Mo read from file:
     /home/nihal/Desktop/pseudos/mo_pbe_v1.uspp.F.UPF
     MD5 check sum: 30c4dcd161f5d35cd49bb5239c51a633
     Pseudo is Ultrasoft + core correction, Zval = 14.0
     Generated by new atomic code, or converted to UPF format
     Using radial grid of  889 points,  6 beta functions with: 
                l(1) =   0
                l(2) =   0
                l(3) =   1
                l(4) =   1
                l(5) =   2
                l(6) =   2
     Q(r) pseudized with  6 coefficients,  rinner =    1.000   1.000   1.000
                                                       1.000   1.000

     PseudoPot. # 2 for S  read from file:
     /home/nihal/Desktop/pseudos/s_pbe_v1.4.uspp.F.UPF
     MD5 check sum: 88d86576ff6df21479756cfb9bdac1df
     Pseudo is Ultrasoft + core correction, Zval =  6.0
     Generated by new atomic code, or converted to UPF format
     Using radial grid of  907 points,  6 beta functions with: 
                l(1) =   0
                l(2) =   0
                l(3) =   1
                l(4) =   1
                l(5) =   2
                l(6) =   2
     Q(r) pseudized with  8 coefficients,  rinner =    1.300   1.300   1.300
                                                       1.300   1.300

     atomic species   valence    mass     pseudopotential
     Mo               14.00    95.95000     Mo( 1.00)
     S                 6.00    32.06500     S ( 1.00)

      6 Sym. Ops. (no inversion) found


                                    s                        frac. trans.

      isym =  1     identity                                     

 cryst.   s( 1) = (     1          0          0      )
                  (     0          1          0      )
                  (     0          0          1      )

 cart.    s( 1) = (  1.0000000  0.0000000  0.0000000 )
                  (  0.0000000  1.0000000  0.0000000 )
                  (  0.0000000  0.0000000  1.0000000 )


      isym =  2     120 deg rotation - cryst. axis [0,0,1]       

 cryst.   s( 2) = (     0          1          0      )
                  (    -1         -1          0      )
                  (     0          0          1      )

 cart.    s( 2) = ( -0.5000000 -0.8660254  0.0000000 )
                  (  0.8660254 -0.5000000  0.0000000 )
                  (  0.0000000  0.0000000  1.0000000 )


      isym =  3     120 deg rotation - cryst. axis [0,0,-1]      

 cryst.   s( 3) = (    -1         -1          0      )
                  (     1          0          0      )
                  (     0          0          1      )

 cart.    s( 3) = ( -0.5000000  0.8660254  0.0000000 )
                  ( -0.8660254 -0.5000000  0.0000000 )
                  (  0.0000000  0.0000000  1.0000000 )


      isym =  4     inv. 180 deg rotation - cart. axis [1,0,0]   

 cryst.   s( 4) = (    -1          0          0      )
                  (     1          1          0      )
                  (     0          0          1      )

 cart.    s( 4) = ( -1.0000000  0.0000000  0.0000000 )
                  (  0.0000000  1.0000000  0.0000000 )
                  (  0.0000000  0.0000000  1.0000000 )


      isym =  5     inv. 180 deg rotation - cryst. axis [0,1,0]  

 cryst.   s( 5) = (     1          1          0      )
                  (     0         -1          0      )
                  (     0          0          1      )

 cart.    s( 5) = (  0.5000000  0.8660254  0.0000000 )
                  (  0.8660254 -0.5000000  0.0000000 )
                  (  0.0000000  0.0000000  1.0000000 )


      isym =  6     inv. 180 deg rotation - cryst. axis [1,1,0]  

 cryst.   s( 6) = (     0         -1          0      )
                  (    -1          0          0      )
                  (     0          0          1      )

 cart.    s( 6) = (  0.5000000 -0.8660254  0.0000000 )
                  ( -0.8660254 -0.5000000  0.0000000 )
                  (  0.0000000  0.0000000  1.0000000 )


   Cartesian axes

     site n.     atom                  positions (alat units)
         1        Mo     tau(   1) = (   0.1249999   0.0721687   0.8744628  )
         2        Mo     tau(   2) = (   0.0000000   0.2886750   0.8744628  )
         3        Mo     tau(   3) = (  -0.1250001   0.5051815   0.8744628  )
         4        Mo     tau(   4) = (  -0.2500001   0.7216879   0.8744628  )
         5        Mo     tau(   5) = (   0.3749999   0.0721688   0.8744628  )
         6        Mo     tau(   6) = (   0.2500000   0.2886750   0.8744628  )
         7        Mo     tau(   7) = (   0.1250001   0.5051815   0.8744628  )
         8        Mo     tau(   8) = (   0.0000000   0.7216879   0.8744628  )
         9        Mo     tau(   9) = (   0.6250001   0.0721688   0.8744628  )
        10        Mo     tau(  10) = (   0.5000000   0.2886751   0.8744628  )
        11        Mo     tau(  11) = (   0.3750001   0.5051816   0.8744628  )
        12        Mo     tau(  12) = (   0.2500001   0.7216879   0.8744628  )
        13        Mo     tau(  13) = (   0.8750001   0.0721687   0.8744628  )
        14        Mo     tau(  14) = (   0.7500000   0.2886750   0.8744628  )
        15        Mo     tau(  15) = (   0.6249999   0.5051816   0.8744628  )
        16        Mo     tau(  16) = (   0.5000000   0.7216879   0.8744628  )
        17        S      tau(  17) = (   0.0000000   0.1443377   0.9967145  )
        18        S      tau(  18) = (  -0.1250000   0.3608439   0.9967144  )
        19        S      tau(  19) = (  -0.2500000   0.5773503   0.9967144  )
        20        S      tau(  20) = (  -0.3750000   0.7938566   0.9967145  )
        21        S      tau(  21) = (   0.2500000   0.1443376   0.9967145  )
        22        S      tau(  22) = (   0.1250000   0.3608439   0.9967144  )
        23        S      tau(  23) = (   0.0000000   0.5773503   0.9967144  )
        24        S      tau(  24) = (  -0.1250000   0.7938566   0.9967144  )
        25        S      tau(  25) = (   0.5000000   0.1443374   0.9967146  )
        26        S      tau(  26) = (   0.3749999   0.3608440   0.9967146  )
        27        S      tau(  27) = (   0.2500000   0.5773503   0.9967144  )
        28        S      tau(  28) = (   0.1250000   0.7938566   0.9967144  )
        29        S      tau(  29) = (   0.7500000   0.1443376   0.9967145  )
        30        S      tau(  30) = (   0.6250001   0.3608440   0.9967146  )
        31        S      tau(  31) = (   0.5000000   0.5773503   0.9967145  )
        32        S      tau(  32) = (   0.3750000   0.7938566   0.9967145  )
        33        S      tau(  33) = (   0.0000000   0.1443377   0.7522117  )
        34        S      tau(  34) = (  -0.1250000   0.3608439   0.7522118  )
        35        S      tau(  35) = (  -0.2500000   0.5773503   0.7522118  )
        36        S      tau(  36) = (  -0.3750000   0.7938566   0.7522117  )
        37        S      tau(  37) = (   0.2500000   0.1443376   0.7522118  )
        38        S      tau(  38) = (   0.1250000   0.3608439   0.7522118  )
        39        S      tau(  39) = (   0.0000000   0.5773503   0.7522118  )
        40        S      tau(  40) = (  -0.1250000   0.7938566   0.7522118  )
        41        S      tau(  41) = (   0.5000000   0.1443374   0.7522116  )
        42        S      tau(  42) = (   0.3749999   0.3608440   0.7522116  )
        43        S      tau(  43) = (   0.2500000   0.5773503   0.7522118  )
        44        S      tau(  44) = (   0.1250000   0.7938566   0.7522118  )
        45        S      tau(  45) = (   0.7500000   0.1443376   0.7522118  )
        46        S      tau(  46) = (   0.6250001   0.3608440   0.7522116  )
        47        S      tau(  47) = (   0.5000000   0.5773503   0.7522118  )
        48        S      tau(  48) = (   0.3750000   0.7938566   0.7522117  )

   Crystallographic axes

     site n.     atom                  positions (cryst. coord.)
         1        Mo     tau(   1) = (  0.1666665  0.0833333  0.7439500  )
         2        Mo     tau(   2) = (  0.1666666  0.3333332  0.7439500  )
         3        Mo     tau(   3) = (  0.1666666  0.5833333  0.7439500  )
         4        Mo     tau(   4) = (  0.1666666  0.8333334  0.7439500  )
         5        Mo     tau(   5) = (  0.4166666  0.0833333  0.7439500  )
         6        Mo     tau(   6) = (  0.4166666  0.3333332  0.7439500  )
         7        Mo     tau(   7) = (  0.4166667  0.5833333  0.7439500  )
         8        Mo     tau(   8) = (  0.4166667  0.8333334  0.7439500  )
         9        Mo     tau(   9) = (  0.6666667  0.0833333  0.7439500  )
        10        Mo     tau(  10) = (  0.6666666  0.3333333  0.7439500  )
        11        Mo     tau(  11) = (  0.6666668  0.5833334  0.7439500  )
        12        Mo     tau(  12) = (  0.6666668  0.8333334  0.7439500  )
        13        Mo     tau(  13) = (  0.9166667  0.0833333  0.7439500  )
        14        Mo     tau(  14) = (  0.9166667  0.3333332  0.7439500  )
        15        Mo     tau(  15) = (  0.9166667  0.5833334  0.7439500  )
        16        Mo     tau(  16) = (  0.9166667  0.8333335  0.7439500  )
        17        S      tau(  17) = (  0.0833334  0.1666668  0.8479558  )
        18        S      tau(  18) = (  0.0833334  0.4166667  0.8479557  )
        19        S      tau(  19) = (  0.0833334  0.6666667  0.8479557  )
        20        S      tau(  20) = (  0.0833333  0.9166666  0.8479558  )
        21        S      tau(  21) = (  0.3333334  0.1666667  0.8479557  )
        22        S      tau(  22) = (  0.3333333  0.4166667  0.8479557  )
        23        S      tau(  23) = (  0.3333334  0.6666667  0.8479556  )
        24        S      tau(  24) = (  0.3333333  0.9166666  0.8479557  )
        25        S      tau(  25) = (  0.5833332  0.1666665  0.8479558  )
        26        S      tau(  26) = (  0.5833332  0.4166668  0.8479558  )
        27        S      tau(  27) = (  0.5833333  0.6666667  0.8479557  )
        28        S      tau(  28) = (  0.5833333  0.9166666  0.8479557  )
        29        S      tau(  29) = (  0.8333333  0.1666667  0.8479557  )
        30        S      tau(  30) = (  0.8333335  0.4166668  0.8479558  )
        31        S      tau(  31) = (  0.8333333  0.6666667  0.8479557  )
        32        S      tau(  32) = (  0.8333333  0.9166666  0.8479558  )
        33        S      tau(  33) = (  0.0833334  0.1666668  0.6399448  )
        34        S      tau(  34) = (  0.0833334  0.4166667  0.6399449  )
        35        S      tau(  35) = (  0.0833334  0.6666667  0.6399449  )
        36        S      tau(  36) = (  0.0833333  0.9166666  0.6399448  )
        37        S      tau(  37) = (  0.3333334  0.1666667  0.6399448  )
        38        S      tau(  38) = (  0.3333333  0.4166667  0.6399449  )
        39        S      tau(  39) = (  0.3333334  0.6666667  0.6399449  )
        40        S      tau(  40) = (  0.3333333  0.9166666  0.6399449  )
        41        S      tau(  41) = (  0.5833332  0.1666665  0.6399447  )
        42        S      tau(  42) = (  0.5833332  0.4166668  0.6399447  )
        43        S      tau(  43) = (  0.5833333  0.6666667  0.6399449  )
        44        S      tau(  44) = (  0.5833333  0.9166666  0.6399449  )
        45        S      tau(  45) = (  0.8333333  0.1666667  0.6399448  )
        46        S      tau(  46) = (  0.8333335  0.4166668  0.6399447  )
        47        S      tau(  47) = (  0.8333333  0.6666667  0.6399448  )
        48        S      tau(  48) = (  0.8333333  0.9166666  0.6399448  )

     number of k points=   121
                       cart. coord. in units 2pi/alat
        k(    1) = (   0.0000000   0.0000000   0.0000000), wk =   0.0165289
        k(    2) = (   0.0125000   0.0072169   0.0000000), wk =   0.0165289
        k(    3) = (   0.0250000   0.0144338   0.0000000), wk =   0.0165289
        k(    4) = (   0.0375000   0.0216506   0.0000000), wk =   0.0165289
        k(    5) = (   0.0500000   0.0288675   0.0000000), wk =   0.0165289
        k(    6) = (   0.0625000   0.0360844   0.0000000), wk =   0.0165289
        k(    7) = (   0.0750000   0.0433013   0.0000000), wk =   0.0165289
        k(    8) = (   0.0875000   0.0505181   0.0000000), wk =   0.0165289
        k(    9) = (   0.1000000   0.0577350   0.0000000), wk =   0.0165289
        k(   10) = (   0.1125000   0.0649519   0.0000000), wk =   0.0165289
        k(   11) = (   0.1250000   0.0721688   0.0000000), wk =   0.0165289
        k(   12) = (   0.1375000   0.0793857   0.0000000), wk =   0.0165289
        k(   13) = (   0.1500000   0.0866025   0.0000000), wk =   0.0165289
        k(   14) = (   0.1625000   0.0938194   0.0000000), wk =   0.0165289
        k(   15) = (   0.1750000   0.1010363   0.0000000), wk =   0.0165289
        k(   16) = (   0.1875000   0.1082532   0.0000000), wk =   0.0165289
        k(   17) = (   0.2000000   0.1154701   0.0000000), wk =   0.0165289
        k(   18) = (   0.2125000   0.1226869   0.0000000), wk =   0.0165289
        k(   19) = (   0.2250000   0.1299038   0.0000000), wk =   0.0165289
        k(   20) = (   0.2375000   0.1371207   0.0000000), wk =   0.0165289
        k(   21) = (   0.2500000   0.1443376   0.0000000), wk =   0.0165289
        k(   22) = (   0.2625000   0.1515544   0.0000000), wk =   0.0165289
        k(   23) = (   0.2750000   0.1587713   0.0000000), wk =   0.0165289
        k(   24) = (   0.2875000   0.1659882   0.0000000), wk =   0.0165289
        k(   25) = (   0.3000000   0.1732051   0.0000000), wk =   0.0165289
        k(   26) = (   0.3125000   0.1804220   0.0000000), wk =   0.0165289
        k(   27) = (   0.3250000   0.1876388   0.0000000), wk =   0.0165289
        k(   28) = (   0.3375000   0.1948557   0.0000000), wk =   0.0165289
        k(   29) = (   0.3500000   0.2020726   0.0000000), wk =   0.0165289
        k(   30) = (   0.3625000   0.2092895   0.0000000), wk =   0.0165289
        k(   31) = (   0.3750000   0.2165064   0.0000000), wk =   0.0165289
        k(   32) = (   0.3875000   0.2237232   0.0000000), wk =   0.0165289
        k(   33) = (   0.4000000   0.2309401   0.0000000), wk =   0.0165289
        k(   34) = (   0.4125000   0.2381570   0.0000000), wk =   0.0165289
        k(   35) = (   0.4250000   0.2453739   0.0000000), wk =   0.0165289
        k(   36) = (   0.4375000   0.2525907   0.0000000), wk =   0.0165289
        k(   37) = (   0.4500000   0.2598076   0.0000000), wk =   0.0165289
        k(   38) = (   0.4625000   0.2670245   0.0000000), wk =   0.0165289
        k(   39) = (   0.4750000   0.2742414   0.0000000), wk =   0.0165289
        k(   40) = (   0.4875000   0.2814583   0.0000000), wk =   0.0165289
        k(   41) = (   0.5000000   0.2886751   0.0000000), wk =   0.0165289
        k(   42) = (   0.4958333   0.2958920   0.0000000), wk =   0.0165289
        k(   43) = (   0.4916666   0.3031089   0.0000000), wk =   0.0165289
        k(   44) = (   0.4875000   0.3103257   0.0000000), wk =   0.0165289
        k(   45) = (   0.4833333   0.3175426   0.0000000), wk =   0.0165289
        k(   46) = (   0.4791666   0.3247595   0.0000000), wk =   0.0165289
        k(   47) = (   0.4750000   0.3319763   0.0000000), wk =   0.0165289
        k(   48) = (   0.4708333   0.3391932   0.0000000), wk =   0.0165289
        k(   49) = (   0.4666666   0.3464100   0.0000000), wk =   0.0165289
        k(   50) = (   0.4624999   0.3536269   0.0000000), wk =   0.0165289
        k(   51) = (   0.4583333   0.3608438   0.0000000), wk =   0.0165289
        k(   52) = (   0.4541666   0.3680606   0.0000000), wk =   0.0165289
        k(   53) = (   0.4499999   0.3752775   0.0000000), wk =   0.0165289
        k(   54) = (   0.4458332   0.3824944   0.0000000), wk =   0.0165289
        k(   55) = (   0.4416665   0.3897112   0.0000000), wk =   0.0165289
        k(   56) = (   0.4374999   0.3969281   0.0000000), wk =   0.0165289
        k(   57) = (   0.4333332   0.4041450   0.0000000), wk =   0.0165289
        k(   58) = (   0.4291665   0.4113618   0.0000000), wk =   0.0165289
        k(   59) = (   0.4249999   0.4185787   0.0000000), wk =   0.0165289
        k(   60) = (   0.4208332   0.4257956   0.0000000), wk =   0.0165289
        k(   61) = (   0.4166665   0.4330124   0.0000000), wk =   0.0165289
        k(   62) = (   0.4124998   0.4402293   0.0000000), wk =   0.0165289
        k(   63) = (   0.4083331   0.4474461   0.0000000), wk =   0.0165289
        k(   64) = (   0.4041665   0.4546630   0.0000000), wk =   0.0165289
        k(   65) = (   0.3999998   0.4618799   0.0000000), wk =   0.0165289
        k(   66) = (   0.3958331   0.4690967   0.0000000), wk =   0.0165289
        k(   67) = (   0.3916664   0.4763136   0.0000000), wk =   0.0165289
        k(   68) = (   0.3874998   0.4835305   0.0000000), wk =   0.0165289
        k(   69) = (   0.3833331   0.4907473   0.0000000), wk =   0.0165289
        k(   70) = (   0.3791664   0.4979642   0.0000000), wk =   0.0165289
        k(   71) = (   0.3749997   0.5051811   0.0000000), wk =   0.0165289
        k(   72) = (   0.3708331   0.5123979   0.0000000), wk =   0.0165289
        k(   73) = (   0.3666664   0.5196148   0.0000000), wk =   0.0165289
        k(   74) = (   0.3624997   0.5268316   0.0000000), wk =   0.0165289
        k(   75) = (   0.3583330   0.5340485   0.0000000), wk =   0.0165289
        k(   76) = (   0.3541664   0.5412654   0.0000000), wk =   0.0165289
        k(   77) = (   0.3499997   0.5484822   0.0000000), wk =   0.0165289
        k(   78) = (   0.3458330   0.5556991   0.0000000), wk =   0.0165289
        k(   79) = (   0.3416664   0.5629160   0.0000000), wk =   0.0165289
        k(   80) = (   0.3374997   0.5701328   0.0000000), wk =   0.0165289
        k(   81) = (   0.3333330   0.5773497   0.0000000), wk =   0.0165289
        k(   82) = (   0.3249997   0.5629160   0.0000000), wk =   0.0165289
        k(   83) = (   0.3166663   0.5484822   0.0000000), wk =   0.0165289
        k(   84) = (   0.3083330   0.5340485   0.0000000), wk =   0.0165289
        k(   85) = (   0.2999997   0.5196147   0.0000000), wk =   0.0165289
        k(   86) = (   0.2916664   0.5051810   0.0000000), wk =   0.0165289
        k(   87) = (   0.2833330   0.4907472   0.0000000), wk =   0.0165289
        k(   88) = (   0.2749997   0.4763135   0.0000000), wk =   0.0165289
        k(   89) = (   0.2666664   0.4618798   0.0000000), wk =   0.0165289
        k(   90) = (   0.2583331   0.4474460   0.0000000), wk =   0.0165289
        k(   91) = (   0.2499997   0.4330123   0.0000000), wk =   0.0165289
        k(   92) = (   0.2416664   0.4185785   0.0000000), wk =   0.0165289
        k(   93) = (   0.2333331   0.4041448   0.0000000), wk =   0.0165289
        k(   94) = (   0.2249998   0.3897110   0.0000000), wk =   0.0165289
        k(   95) = (   0.2166664   0.3752773   0.0000000), wk =   0.0165289
        k(   96) = (   0.2083331   0.3608436   0.0000000), wk =   0.0165289
        k(   97) = (   0.1999998   0.3464098   0.0000000), wk =   0.0165289
        k(   98) = (   0.1916665   0.3319761   0.0000000), wk =   0.0165289
        k(   99) = (   0.1833332   0.3175423   0.0000000), wk =   0.0165289
        k(  100) = (   0.1749998   0.3031086   0.0000000), wk =   0.0165289
        k(  101) = (   0.1666665   0.2886748   0.0000000), wk =   0.0165289
        k(  102) = (   0.1583332   0.2742411   0.0000000), wk =   0.0165289
        k(  103) = (   0.1499998   0.2598074   0.0000000), wk =   0.0165289
        k(  104) = (   0.1416665   0.2453736   0.0000000), wk =   0.0165289
        k(  105) = (   0.1333332   0.2309399   0.0000000), wk =   0.0165289
        k(  106) = (   0.1249999   0.2165061   0.0000000), wk =   0.0165289
        k(  107) = (   0.1166665   0.2020724   0.0000000), wk =   0.0165289
        k(  108) = (   0.1083332   0.1876387   0.0000000), wk =   0.0165289
        k(  109) = (   0.0999999   0.1732049   0.0000000), wk =   0.0165289
        k(  110) = (   0.0916666   0.1587712   0.0000000), wk =   0.0165289
        k(  111) = (   0.0833332   0.1443374   0.0000000), wk =   0.0165289
        k(  112) = (   0.0749999   0.1299037   0.0000000), wk =   0.0165289
        k(  113) = (   0.0666666   0.1154699   0.0000000), wk =   0.0165289
        k(  114) = (   0.0583333   0.1010362   0.0000000), wk =   0.0165289
        k(  115) = (   0.0499999   0.0866025   0.0000000), wk =   0.0165289
        k(  116) = (   0.0416666   0.0721687   0.0000000), wk =   0.0165289
        k(  117) = (   0.0333333   0.0577350   0.0000000), wk =   0.0165289
        k(  118) = (   0.0250000   0.0433012   0.0000000), wk =   0.0165289
        k(  119) = (   0.0166667   0.0288675   0.0000000), wk =   0.0165289
        k(  120) = (   0.0083333   0.0144337   0.0000000), wk =   0.0165289
        k(  121) = (   0.0000000   0.0000000   0.0000000), wk =   0.0165289

                       cryst. coord.
        k(    1) = (   0.0000000   0.0000000   0.0000000), wk =   0.0165289
        k(    2) = (   0.0125000   0.0000000   0.0000000), wk =   0.0165289
        k(    3) = (   0.0250000   0.0000000   0.0000000), wk =   0.0165289
        k(    4) = (   0.0375000   0.0000000   0.0000000), wk =   0.0165289
        k(    5) = (   0.0500000   0.0000000   0.0000000), wk =   0.0165289
        k(    6) = (   0.0625000   0.0000000   0.0000000), wk =   0.0165289
        k(    7) = (   0.0750000   0.0000000   0.0000000), wk =   0.0165289
        k(    8) = (   0.0875000   0.0000000   0.0000000), wk =   0.0165289
        k(    9) = (   0.1000000   0.0000000   0.0000000), wk =   0.0165289
        k(   10) = (   0.1125000   0.0000000   0.0000000), wk =   0.0165289
        k(   11) = (   0.1250000   0.0000000   0.0000000), wk =   0.0165289
        k(   12) = (   0.1375000   0.0000000   0.0000000), wk =   0.0165289
        k(   13) = (   0.1500000   0.0000000   0.0000000), wk =   0.0165289
        k(   14) = (   0.1625000   0.0000000   0.0000000), wk =   0.0165289
        k(   15) = (   0.1750000   0.0000000   0.0000000), wk =   0.0165289
        k(   16) = (   0.1875000   0.0000000   0.0000000), wk =   0.0165289
        k(   17) = (   0.2000000   0.0000000   0.0000000), wk =   0.0165289
        k(   18) = (   0.2125000   0.0000000   0.0000000), wk =   0.0165289
        k(   19) = (   0.2250000   0.0000000   0.0000000), wk =   0.0165289
        k(   20) = (   0.2375000   0.0000000   0.0000000), wk =   0.0165289
        k(   21) = (   0.2500000   0.0000000   0.0000000), wk =   0.0165289
        k(   22) = (   0.2625000   0.0000000   0.0000000), wk =   0.0165289
        k(   23) = (   0.2750000   0.0000000   0.0000000), wk =   0.0165289
        k(   24) = (   0.2875000   0.0000000   0.0000000), wk =   0.0165289
        k(   25) = (   0.3000000   0.0000000   0.0000000), wk =   0.0165289
        k(   26) = (   0.3125000   0.0000000   0.0000000), wk =   0.0165289
        k(   27) = (   0.3250000   0.0000000   0.0000000), wk =   0.0165289
        k(   28) = (   0.3375000   0.0000000   0.0000000), wk =   0.0165289
        k(   29) = (   0.3500000   0.0000000   0.0000000), wk =   0.0165289
        k(   30) = (   0.3625000   0.0000000   0.0000000), wk =   0.0165289
        k(   31) = (   0.3750000   0.0000000   0.0000000), wk =   0.0165289
        k(   32) = (   0.3875000   0.0000000   0.0000000), wk =   0.0165289
        k(   33) = (   0.4000000   0.0000000   0.0000000), wk =   0.0165289
        k(   34) = (   0.4125000   0.0000000   0.0000000), wk =   0.0165289
        k(   35) = (   0.4250000   0.0000000   0.0000000), wk =   0.0165289
        k(   36) = (   0.4375000   0.0000000   0.0000000), wk =   0.0165289
        k(   37) = (   0.4500000   0.0000000   0.0000000), wk =   0.0165289
        k(   38) = (   0.4625000   0.0000000   0.0000000), wk =   0.0165289
        k(   39) = (   0.4750000   0.0000000   0.0000000), wk =   0.0165289
        k(   40) = (   0.4875000   0.0000000   0.0000000), wk =   0.0165289
        k(   41) = (   0.5000000   0.0000000   0.0000000), wk =   0.0165289
        k(   42) = (   0.4958333   0.0083333   0.0000000), wk =   0.0165289
        k(   43) = (   0.4916666   0.0166667   0.0000000), wk =   0.0165289
        k(   44) = (   0.4875000   0.0250000   0.0000000), wk =   0.0165289
        k(   45) = (   0.4833333   0.0333333   0.0000000), wk =   0.0165289
        k(   46) = (   0.4791666   0.0416666   0.0000000), wk =   0.0165289
        k(   47) = (   0.4750000   0.0500000   0.0000000), wk =   0.0165289
        k(   48) = (   0.4708333   0.0583333   0.0000000), wk =   0.0165289
        k(   49) = (   0.4666666   0.0666666   0.0000000), wk =   0.0165289
        k(   50) = (   0.4624999   0.0749999   0.0000000), wk =   0.0165289
        k(   51) = (   0.4583333   0.0833333   0.0000000), wk =   0.0165289
        k(   52) = (   0.4541666   0.0916666   0.0000000), wk =   0.0165289
        k(   53) = (   0.4499999   0.0999999   0.0000000), wk =   0.0165289
        k(   54) = (   0.4458332   0.1083332   0.0000000), wk =   0.0165289
        k(   55) = (   0.4416665   0.1166666   0.0000000), wk =   0.0165289
        k(   56) = (   0.4374999   0.1249999   0.0000000), wk =   0.0165289
        k(   57) = (   0.4333332   0.1333332   0.0000000), wk =   0.0165289
        k(   58) = (   0.4291665   0.1416665   0.0000000), wk =   0.0165289
        k(   59) = (   0.4249999   0.1499999   0.0000000), wk =   0.0165289
        k(   60) = (   0.4208332   0.1583332   0.0000000), wk =   0.0165289
        k(   61) = (   0.4166665   0.1666665   0.0000000), wk =   0.0165289
        k(   62) = (   0.4124998   0.1749998   0.0000000), wk =   0.0165289
        k(   63) = (   0.4083331   0.1833332   0.0000000), wk =   0.0165289
        k(   64) = (   0.4041665   0.1916665   0.0000000), wk =   0.0165289
        k(   65) = (   0.3999998   0.1999998   0.0000000), wk =   0.0165289
        k(   66) = (   0.3958331   0.2083331   0.0000000), wk =   0.0165289
        k(   67) = (   0.3916664   0.2166665   0.0000000), wk =   0.0165289
        k(   68) = (   0.3874998   0.2249998   0.0000000), wk =   0.0165289
        k(   69) = (   0.3833331   0.2333331   0.0000000), wk =   0.0165289
        k(   70) = (   0.3791664   0.2416664   0.0000000), wk =   0.0165289
        k(   71) = (   0.3749997   0.2499998   0.0000000), wk =   0.0165289
        k(   72) = (   0.3708331   0.2583331   0.0000000), wk =   0.0165289
        k(   73) = (   0.3666664   0.2666664   0.0000000), wk =   0.0165289
        k(   74) = (   0.3624997   0.2749997   0.0000000), wk =   0.0165289
        k(   75) = (   0.3583330   0.2833331   0.0000000), wk =   0.0165289
        k(   76) = (   0.3541664   0.2916664   0.0000000), wk =   0.0165289
        k(   77) = (   0.3499997   0.2999997   0.0000000), wk =   0.0165289
        k(   78) = (   0.3458330   0.3083330   0.0000000), wk =   0.0165289
        k(   79) = (   0.3416664   0.3166664   0.0000000), wk =   0.0165289
        k(   80) = (   0.3374997   0.3249997   0.0000000), wk =   0.0165289
        k(   81) = (   0.3333330   0.3333330   0.0000000), wk =   0.0165289
        k(   82) = (   0.3249997   0.3249997   0.0000000), wk =   0.0165289
        k(   83) = (   0.3166663   0.3166664   0.0000000), wk =   0.0165289
        k(   84) = (   0.3083330   0.3083330   0.0000000), wk =   0.0165289
        k(   85) = (   0.2999997   0.2999997   0.0000000), wk =   0.0165289
        k(   86) = (   0.2916664   0.2916664   0.0000000), wk =   0.0165289
        k(   87) = (   0.2833330   0.2833331   0.0000000), wk =   0.0165289
        k(   88) = (   0.2749997   0.2749997   0.0000000), wk =   0.0165289
        k(   89) = (   0.2666664   0.2666664   0.0000000), wk =   0.0165289
        k(   90) = (   0.2583331   0.2583331   0.0000000), wk =   0.0165289
        k(   91) = (   0.2499997   0.2499998   0.0000000), wk =   0.0165289
        k(   92) = (   0.2416664   0.2416664   0.0000000), wk =   0.0165289
        k(   93) = (   0.2333331   0.2333331   0.0000000), wk =   0.0165289
        k(   94) = (   0.2249998   0.2249998   0.0000000), wk =   0.0165289
        k(   95) = (   0.2166664   0.2166665   0.0000000), wk =   0.0165289
        k(   96) = (   0.2083331   0.2083331   0.0000000), wk =   0.0165289
        k(   97) = (   0.1999998   0.1999998   0.0000000), wk =   0.0165289
        k(   98) = (   0.1916665   0.1916665   0.0000000), wk =   0.0165289
        k(   99) = (   0.1833332   0.1833332   0.0000000), wk =   0.0165289
        k(  100) = (   0.1749998   0.1749998   0.0000000), wk =   0.0165289
        k(  101) = (   0.1666665   0.1666665   0.0000000), wk =   0.0165289
        k(  102) = (   0.1583332   0.1583332   0.0000000), wk =   0.0165289
        k(  103) = (   0.1499998   0.1499999   0.0000000), wk =   0.0165289
        k(  104) = (   0.1416665   0.1416665   0.0000000), wk =   0.0165289
        k(  105) = (   0.1333332   0.1333332   0.0000000), wk =   0.0165289
        k(  106) = (   0.1249999   0.1249999   0.0000000), wk =   0.0165289
        k(  107) = (   0.1166665   0.1166666   0.0000000), wk =   0.0165289
        k(  108) = (   0.1083332   0.1083332   0.0000000), wk =   0.0165289
        k(  109) = (   0.0999999   0.0999999   0.0000000), wk =   0.0165289
        k(  110) = (   0.0916666   0.0916666   0.0000000), wk =   0.0165289
        k(  111) = (   0.0833332   0.0833333   0.0000000), wk =   0.0165289
        k(  112) = (   0.0749999   0.0749999   0.0000000), wk =   0.0165289
        k(  113) = (   0.0666666   0.0666666   0.0000000), wk =   0.0165289
        k(  114) = (   0.0583333   0.0583333   0.0000000), wk =   0.0165289
        k(  115) = (   0.0499999   0.0499999   0.0000000), wk =   0.0165289
        k(  116) = (   0.0416666   0.0416666   0.0000000), wk =   0.0165289
        k(  117) = (   0.0333333   0.0333333   0.0000000), wk =   0.0165289
        k(  118) = (   0.0250000   0.0250000   0.0000000), wk =   0.0165289
        k(  119) = (   0.0166667   0.0166667   0.0000000), wk =   0.0165289
        k(  120) = (   0.0083333   0.0083333   0.0000000), wk =   0.0165289
        k(  121) = (   0.0000000   0.0000000   0.0000000), wk =   0.0165289

     Dense  grid:  2695269 G-vectors     FFT dimensions: ( 180, 180, 216)

     Smooth grid:  1010563 G-vectors     FFT dimensions: ( 125, 125, 150)

     Dynamical RAM for                 wfc:      62.65 MB

     Dynamical RAM for     wfc (w. buffer):      62.65 MB

     Dynamical RAM for           str. fact:      10.28 MB

     Dynamical RAM for           local pot:       0.00 MB

     Dynamical RAM for          nlocal pot:     208.18 MB

     Dynamical RAM for                qrad:       3.59 MB

     Dynamical RAM for          rho,v,vnew:      35.45 MB

     Dynamical RAM for           G-vectors:      20.24 MB

     Dynamical RAM for          h,s,v(r/c):     111.40 MB

     Dynamical RAM for          <psi|beta>:       3.43 MB

     Dynamical RAM for                 psi:     751.77 MB

     Dynamical RAM for                hpsi:     751.77 MB

     Dynamical RAM for                spsi:     751.77 MB

     Dynamical RAM for      wfcinit/wfcrot:     126.84 MB

     Dynamical RAM for           addusdens:    1120.70 MB

     Estimated static dynamical RAM per process >     389.18 MB

     Estimated max dynamical RAM per process >       2.69 GB

     Estimated total dynamical RAM >      21.56 GB

     Atomic positions and unit cell read from directory:
     /home/nihal/Desktop/Otptf/Trial_2.save/


     The potential is recalculated from file :
     /home/nihal/Desktop/Otptf/Trial_2.save/charge-density


     negative rho (up, down):  2.808E-03 0.000E+00
     Starting wfcs are  336 randomized atomic wfcs

     Band Structure Calculation
     Calculation restarted from kpoint #   119
     Davidson diagonalization with overlap

     Computing kpt #:   119  of   121
     total cpu time spent up to now is      212.3 secs

     Computing kpt #:   120  of   121
     total cpu time spent up to now is      390.0 secs

     Computing kpt #:   121  of   121
     total cpu time spent up to now is      567.9 secs

     ethr =  2.40E-10,  avg # of iterations = 12.4

     total cpu time spent up to now is      567.9 secs

     End of band structure calculation

          k = 0.0000 0.0000 0.0000 (126355 PWs)   bands (ev):

   -60.2546 -60.2366 -60.2365 -60.2365 -60.2365 -60.2365 -60.2365 -60.2185
   -60.2185 -60.2184 -60.2184 -60.2184 -60.2184 -60.2184 -60.2184 -60.2184
   -34.5463 -34.5463 -34.5463 -34.4800 -34.4800 -34.4800 -34.4800 -34.4800
   -34.4800 -34.3816 -34.3684 -34.3684 -34.3684 -34.3684 -34.3684 -34.3684
   -34.3453 -34.3453 -34.3453 -34.3453 -34.3453 -34.3453 -34.3377 -34.3377
   -34.3377 -34.3377 -34.3377 -34.3377 -34.3089 -34.3088 -34.3088 -34.3088
   -34.3088 -34.3088 -34.3088 -34.3088 -34.3088 -34.2691 -34.2691 -34.2691
   -34.2274 -34.2274 -34.2274 -34.2274 -34.2274 -34.2274 -34.1854 -34.1854
   -13.4150 -12.6013 -12.6013 -12.6013 -12.6013 -12.6013 -12.6013 -12.1074
   -11.7766 -11.7766 -11.7766 -11.7766 -11.7766 -11.7765 -11.6012 -11.6012
   -11.6012 -11.6012 -11.6012 -11.6012 -11.5743 -11.5743 -11.5743 -11.3775
   -11.3775 -11.3775 -11.3564 -11.3564 -11.3564 -11.3564 -11.3564 -11.3563
    -5.0851  -5.0851  -5.0850  -4.9329  -4.4332  -4.4332  -4.4332  -4.4332
    -4.4332  -4.4332  -4.3193  -4.3193  -4.3192  -4.3192  -4.3192  -4.3192
    -4.2383  -4.2383  -4.2383  -4.2383  -4.2382  -4.2382  -4.0960  -4.0960
    -4.0960  -3.3962  -3.3962  -3.3962  -3.1560  -3.1560  -3.1560  -3.1560
    -3.1560  -3.1560  -2.9492  -2.9492  -2.9492  -2.9492  -2.9492  -2.9491
    -2.8976  -2.8976  -2.8976  -2.8976  -2.8976  -2.8976  -2.5551  -2.5551
    -2.5551  -2.5551  -2.5551  -2.5551  -2.5124  -2.5124  -2.5124  -2.2463
    -2.2463  -2.2463  -2.2463  -2.2463  -2.2463  -1.9725  -1.9725  -1.8394
    -1.8394  -1.8394  -1.8394  -1.8394  -1.8394  -1.1976  -1.1976  -1.1976
    -1.1573  -1.1573  -1.1573  -1.1573  -1.1573  -1.1573  -1.0967  -0.9680
    -0.9680  -0.9680  -0.9680  -0.9680  -0.9680  -0.8717  -0.8717  -0.6593
    -0.6593  -0.6593  -0.6593  -0.6593  -0.6593  -0.3490  -0.3490  -0.3490
    -0.0555  -0.0555  -0.0555  -0.0555  -0.0555  -0.0555   0.0247   0.0247
     0.0247   0.1237   0.1237   0.1237   0.1237   0.1237   0.1237   0.6716
     2.8058   2.8058   2.8058   2.8058   2.8058   2.8059   2.8270   2.8270
     2.8270   2.8270   2.8270   2.8270   2.8597   2.8597   2.8597   2.9919
     2.9919   2.9919   2.9919   2.9919   2.9919   3.3742   3.3742   3.3742
     3.3885   3.3885   3.4365   3.4365   3.4365   3.4365   3.4365   3.4365
     3.5315   3.5315   3.5315   3.5315   3.5315   3.5315   3.6432   3.6432
     3.7477   3.7477   3.7477   3.7477   3.7477   3.7477   4.4037   4.4037
     4.4037   4.4037   4.4037   4.4037

          k = 0.0125 0.0072 0.0000 (126339 PWs)   bands (ev):

   -60.2546 -60.2369 -60.2367 -60.2367 -60.2364 -60.2364 -60.2362 -60.2186
   -60.2186 -60.2184 -60.2184 -60.2184 -60.2184 -60.2184 -60.2183 -60.2183
   -34.5463 -34.5463 -34.5463 -34.4804 -34.4804 -34.4800 -34.4800 -34.4795
   -34.4795 -34.3816 -34.3719 -34.3702 -34.3702 -34.3666 -34.3666 -34.3649
   -34.3460 -34.3456 -34.3456 -34.3449 -34.3449 -34.3446 -34.3395 -34.3394
   -34.3377 -34.3377 -34.3360 -34.3360 -34.3092 -34.3092 -34.3088 -34.3088
   -34.3088 -34.3088 -34.3088 -34.3085 -34.3085 -34.2691 -34.2691 -34.2691
   -34.2282 -34.2278 -34.2278 -34.2270 -34.2270 -34.2266 -34.1854 -34.1854
   -13.4149 -12.6189 -12.6100 -12.6100 -12.5925 -12.5925 -12.5837 -12.1073
   -11.7836 -11.7801 -11.7801 -11.7730 -11.7730 -11.7695 -11.6124 -11.6124
   -11.6012 -11.6012 -11.5902 -11.5902 -11.5745 -11.5743 -11.5743 -11.3776
   -11.3775 -11.3775 -11.3613 -11.3613 -11.3564 -11.3564 -11.3515 -11.3515
    -5.0849  -5.0848  -5.0848  -4.9327  -4.4361  -4.4361  -4.4335  -4.4335
    -4.4301  -4.4301  -4.3198  -4.3196  -4.3193  -4.3193  -4.3192  -4.3192
    -4.2560  -4.2560  -4.2382  -4.2382  -4.2202  -4.2202  -4.0961  -4.0961
    -4.0958  -3.3961  -3.3961  -3.3961  -3.1649  -3.1606  -3.1605  -3.1514
    -3.1514  -3.1465  -2.9498  -2.9498  -2.9495  -2.9495  -2.9494  -2.9494
    -2.9216  -2.9096  -2.9096  -2.8856  -2.8856  -2.8736  -2.5615  -2.5615
    -2.5551  -2.5551  -2.5486  -2.5486  -2.5124  -2.5123  -2.5122  -2.2679
    -2.2679  -2.2452  -2.2452  -2.2241  -2.2241  -1.9728  -1.9723  -1.8545
    -1.8475  -1.8475  -1.8323  -1.8323  -1.8241  -1.1976  -1.1976  -1.1975
    -1.1737  -1.1656  -1.1656  -1.1492  -1.1492  -1.1409  -1.0987  -0.9814
    -0.9814  -0.9681  -0.9681  -0.9547  -0.9547  -0.8720  -0.8699  -0.6709
    -0.6647  -0.6647  -0.6531  -0.6531  -0.6478  -0.3501  -0.3501  -0.3491
    -0.0713  -0.0634  -0.0634  -0.0475  -0.0475  -0.0394   0.0245   0.0252
     0.0252   0.1125   0.1125   0.1238   0.1238   0.1351   0.1351   0.6715
     2.7984   2.7984   2.8059   2.8059   2.8126   2.8126   2.8254   2.8258
     2.8258   2.8276   2.8276   2.8289   2.8597   2.8598   2.8598   2.9836
     2.9879   2.9879   2.9963   2.9963   3.0003   3.3740   3.3742   3.3742
     3.3883   3.3888   3.4184   3.4184   3.4364   3.4364   3.4550   3.4550
     3.5143   3.5225   3.5225   3.5399   3.5399   3.5490   3.6427   3.6430
     3.7439   3.7439   3.7480   3.7480   3.7514   3.7514   4.3893   4.3968
     4.3968   4.4111   4.4111   4.4179

          k = 0.0250 0.0144 0.0000 (126349 PWs)   bands (ev):

   -60.2546 -60.2372 -60.2369 -60.2369 -60.2362 -60.2362 -60.2358 -60.2188
   -60.2188 -60.2184 -60.2184 -60.2184 -60.2184 -60.2184 -60.2181 -60.2181
   -34.5462 -34.5462 -34.5462 -34.4808 -34.4808 -34.4801 -34.4801 -34.4790
   -34.4790 -34.3815 -34.3755 -34.3720 -34.3720 -34.3649 -34.3649 -34.3613
   -34.3467 -34.3460 -34.3460 -34.3446 -34.3446 -34.3439 -34.3412 -34.3411
   -34.3376 -34.3376 -34.3343 -34.3343 -34.3096 -34.3096 -34.3088 -34.3088
   -34.3088 -34.3088 -34.3088 -34.3081 -34.3081 -34.2692 -34.2691 -34.2690
   -34.2291 -34.2283 -34.2283 -34.2266 -34.2266 -34.2258 -34.1855 -34.1854
   -13.4145 -12.6363 -12.6185 -12.6185 -12.5834 -12.5834 -12.5661 -12.1071
   -11.7906 -11.7835 -11.7835 -11.7693 -11.7693 -11.7624 -11.6237 -11.6237
   -11.6012 -11.6012 -11.5795 -11.5795 -11.5752 -11.5744 -11.5744 -11.3778
   -11.3774 -11.3774 -11.3663 -11.3663 -11.3564 -11.3564 -11.3468 -11.3468
    -5.0842  -5.0842  -5.0841  -4.9322  -4.4388  -4.4388  -4.4345  -4.4345
    -4.4267  -4.4267  -4.3211  -4.3207  -4.3195  -4.3195  -4.3193  -4.3193
    -4.2734  -4.2734  -4.2381  -4.2381  -4.2018  -4.2018  -4.0963  -4.0963
    -4.0951  -3.3959  -3.3959  -3.3957  -3.1730  -3.1649  -3.1649  -3.1466
    -3.1466  -3.1362  -2.9516  -2.9516  -2.9504  -2.9504  -2.9502  -2.9502
    -2.9455  -2.9215  -2.9215  -2.8735  -2.8735  -2.8495  -2.5676  -2.5676
    -2.5550  -2.5550  -2.5419  -2.5419  -2.5123  -2.5123  -2.5119  -2.2889
    -2.2889  -2.2418  -2.2418  -2.2013  -2.2013  -1.9738  -1.9719  -1.8696
    -1.8568  -1.8568  -1.8263  -1.8263  -1.8087  -1.1974  -1.1974  -1.1973
    -1.1902  -1.1741  -1.1741  -1.1413  -1.1413  -1.1244  -1.1046  -0.9948
    -0.9948  -0.9685  -0.9685  -0.9415  -0.9415  -0.8727  -0.8646  -0.6826
    -0.6694  -0.6694  -0.6462  -0.6462  -0.6363  -0.3533  -0.3533  -0.3495
    -0.0867  -0.0713  -0.0713  -0.0395  -0.0395  -0.0231   0.0236   0.0267
     0.0267   0.1015   0.1015   0.1239   0.1239   0.1467   0.1467   0.6713
     2.7905   2.7905   2.8061   2.8061   2.8187   2.8187   2.8243   2.8243
     2.8243   2.8276   2.8276   2.8313   2.8595   2.8599   2.8599   2.9756
     2.9845   2.9845   3.0010   3.0010   3.0090   3.3733   3.3741   3.3741
     3.3876   3.3896   3.4007   3.4007   3.4363   3.4363   3.4738   3.4738
     3.4973   3.5129   3.5129   3.5476   3.5476   3.5667   3.6414   3.6425
     3.7401   3.7401   3.7491   3.7491   3.7549   3.7549   4.3748   4.3906
     4.3906   4.4192   4.4192   4.4319

          k = 0.0375 0.0217 0.0000 (126345 PWs)   bands (ev):

   -60.2545 -60.2376 -60.2371 -60.2371 -60.2360 -60.2360 -60.2355 -60.2190
   -60.2190 -60.2185 -60.2184 -60.2184 -60.2184 -60.2184 -60.2179 -60.2179
   -34.5461 -34.5461 -34.5460 -34.4812 -34.4812 -34.4803 -34.4803 -34.4785
   -34.4785 -34.3815 -34.3790 -34.3738 -34.3738 -34.3632 -34.3632 -34.3578
   -34.3474 -34.3463 -34.3463 -34.3442 -34.3442 -34.3431 -34.3428 -34.3428
   -34.3374 -34.3374 -34.3325 -34.3325 -34.3099 -34.3099 -34.3088 -34.3088
   -34.3088 -34.3088 -34.3088 -34.3078 -34.3078 -34.2693 -34.2692 -34.2690
   -34.2299 -34.2288 -34.2288 -34.2263 -34.2263 -34.2249 -34.1857 -34.1855
   -13.4137 -12.6536 -12.6268 -12.6268 -12.5741 -12.5741 -12.5483 -12.1068
   -11.7976 -11.7868 -11.7868 -11.7656 -11.7656 -11.7553 -11.6352 -11.6352
   -11.6011 -11.6011 -11.5764 -11.5744 -11.5744 -11.5689 -11.5689 -11.3782
   -11.3774 -11.3774 -11.3713 -11.3713 -11.3564 -11.3564 -11.3421 -11.3421
    -5.0832  -5.0832  -5.0830  -4.9314  -4.4412  -4.4412  -4.4361  -4.4361
    -4.4232  -4.4232  -4.3232  -4.3226  -4.3198  -4.3198  -4.3194  -4.3194
    -4.2905  -4.2905  -4.2378  -4.2378  -4.1831  -4.1831  -4.0966  -4.0966
    -4.0939  -3.3955  -3.3955  -3.3951  -3.1805  -3.1691  -3.1691  -3.1417
    -3.1417  -3.1253  -2.9693  -2.9546  -2.9545  -2.9517  -2.9517  -2.9517
    -2.9517  -2.9333  -2.9333  -2.8613  -2.8613  -2.8254  -2.5735  -2.5735
    -2.5548  -2.5548  -2.5350  -2.5350  -2.5123  -2.5123  -2.5113  -2.3092
    -2.3092  -2.2363  -2.2363  -2.1780  -2.1780  -1.9755  -1.9711  -1.8846
    -1.8671  -1.8671  -1.8215  -1.8215  -1.7932  -1.2066  -1.1971  -1.1971
    -1.1969  -1.1827  -1.1827  -1.1337  -1.1337  -1.1139  -1.1080  -1.0083
    -1.0083  -0.9691  -0.9691  -0.9284  -0.9283  -0.8739  -0.8564  -0.6943
    -0.6733  -0.6733  -0.6385  -0.6385  -0.6248  -0.3587  -0.3587  -0.3502
    -0.1019  -0.0792  -0.0792  -0.0315  -0.0315  -0.0066   0.0222   0.0291
     0.0291   0.0907   0.0907   0.1241   0.1241   0.1584   0.1584   0.6710
     2.7819   2.7819   2.8064   2.8064   2.8223   2.8223   2.8236   2.8241
     2.8241   2.8270   2.8270   2.8340   2.8593   2.8602   2.8602   2.9677
     2.9816   2.9816   3.0060   3.0060   3.0177   3.3721   3.3740   3.3740
     3.3835   3.3835   3.3863   3.3910   3.4361   3.4361   3.4805   3.4929
     3.4929   3.5027   3.5027   3.5548   3.5548   3.5846   3.6391   3.6416
     3.7361   3.7361   3.7510   3.7510   3.7584   3.7584   4.3600   4.3850
     4.3850   4.4279   4.4279   4.4458

          k = 0.0500 0.0289 0.0000 (126335 PWs)   bands (ev):

   -60.2545 -60.2380 -60.2372 -60.2372 -60.2358 -60.2358 -60.2351 -60.2192
   -60.2192 -60.2185 -60.2184 -60.2184 -60.2184 -60.2184 -60.2178 -60.2177
   -34.5460 -34.5460 -34.5458 -34.4816 -34.4816 -34.4806 -34.4806 -34.4780
   -34.4780 -34.3825 -34.3815 -34.3756 -34.3756 -34.3615 -34.3615 -34.3542
   -34.3481 -34.3467 -34.3467 -34.3445 -34.3445 -34.3438 -34.3438 -34.3424
   -34.3371 -34.3371 -34.3307 -34.3307 -34.3103 -34.3103 -34.3089 -34.3088
   -34.3088 -34.3088 -34.3088 -34.3075 -34.3074 -34.2694 -34.2694 -34.2689
   -34.2307 -34.2293 -34.2293 -34.2260 -34.2260 -34.2241 -34.1860 -34.1855
   -13.4127 -12.6709 -12.6349 -12.6349 -12.5647 -12.5647 -12.5305 -12.1064
   -11.8046 -11.7901 -11.7900 -11.7618 -11.7618 -11.7481 -11.6469 -11.6469
   -11.6011 -11.6010 -11.5780 -11.5745 -11.5745 -11.5585 -11.5585 -11.3788
   -11.3773 -11.3773 -11.3765 -11.3765 -11.3565 -11.3565 -11.3375 -11.3375
    -5.0818  -5.0818  -5.0813  -4.9302  -4.4435  -4.4435  -4.4383  -4.4383
    -4.4194  -4.4194  -4.3262  -4.3253  -4.3201  -4.3201  -4.3196  -4.3196
    -4.3072  -4.3072  -4.2375  -4.2375  -4.1642  -4.1642  -4.0970  -4.0970
    -4.0923  -3.3949  -3.3949  -3.3943  -3.1874  -3.1732  -3.1732  -3.1366
    -3.1366  -3.1137  -2.9930  -2.9586  -2.9586  -2.9538  -2.9538  -2.9536
    -2.9536  -2.9451  -2.9451  -2.8491  -2.8491  -2.8012  -2.5791  -2.5791
    -2.5546  -2.5546  -2.5279  -2.5279  -2.5122  -2.5122  -2.5105  -2.3288
    -2.3288  -2.2287  -2.2287  -2.1544  -2.1544  -1.9779  -1.9701  -1.8995
    -1.8784  -1.8784  -1.8177  -1.8177  -1.7777  -1.2229  -1.1968  -1.1968
    -1.1963  -1.1914  -1.1914  -1.1263  -1.1263  -1.1260  -1.0916  -1.0219
    -1.0219  -0.9699  -0.9699  -0.9154  -0.9154  -0.8756  -0.8457  -0.7060
    -0.6764  -0.6764  -0.6300  -0.6300  -0.6135  -0.3661  -0.3661  -0.3512
    -0.1167  -0.0869  -0.0869  -0.0236  -0.0236   0.0101   0.0203   0.0323
     0.0323   0.0802   0.0802   0.1244   0.1244   0.1703   0.1703   0.6705
     2.7729   2.7729   2.8068   2.8068   2.8201   2.8201   2.8233   2.8256
     2.8256   2.8288   2.8288   2.8371   2.8589   2.8605   2.8605   2.9600
     2.9794   2.9794   3.0111   3.0111   3.0267   3.3668   3.3668   3.3705
     3.3739   3.3739   3.3846   3.3929   3.4358   3.4358   3.4641   3.4920
     3.4920   3.5122   3.5122   3.5612   3.5612   3.6027   3.6359   3.6404
     3.7321   3.7321   3.7535   3.7535   3.7618   3.7618   4.3452   4.3800
     4.3800   4.4371   4.4371   4.4594

          k = 0.0625 0.0361 0.0000 (126299 PWs)   bands (ev):

   -60.2545 -60.2383 -60.2374 -60.2374 -60.2356 -60.2356 -60.2348 -60.2194
   -60.2194 -60.2185 -60.2184 -60.2184 -60.2184 -60.2184 -60.2176 -60.2176
   -34.5458 -34.5458 -34.5455 -34.4819 -34.4819 -34.4809 -34.4809 -34.4774
   -34.4774 -34.3861 -34.3814 -34.3774 -34.3774 -34.3598 -34.3598 -34.3507
   -34.3489 -34.3470 -34.3470 -34.3461 -34.3461 -34.3434 -34.3434 -34.3417
   -34.3368 -34.3368 -34.3289 -34.3289 -34.3107 -34.3107 -34.3090 -34.3088
   -34.3088 -34.3088 -34.3088 -34.3071 -34.3071 -34.2696 -34.2696 -34.2689
   -34.2315 -34.2298 -34.2298 -34.2257 -34.2257 -34.2233 -34.1863 -34.1856
   -13.4114 -12.6881 -12.6428 -12.6428 -12.5551 -12.5551 -12.5127 -12.1059
   -11.8115 -11.7932 -11.7932 -11.7579 -11.7579 -11.7410 -11.6588 -11.6588
   -11.6010 -11.6010 -11.5801 -11.5746 -11.5746 -11.5483 -11.5483 -11.3816
   -11.3816 -11.3796 -11.3773 -11.3773 -11.3566 -11.3566 -11.3330 -11.3330
    -5.0800  -5.0800  -5.0793  -4.9287  -4.4455  -4.4455  -4.4412  -4.4412
    -4.4155  -4.4155  -4.3300  -4.3287  -4.3236  -4.3236  -4.3205  -4.3205
    -4.3199  -4.3199  -4.2370  -4.2370  -4.1449  -4.1449  -4.0976  -4.0976
    -4.0902  -3.3942  -3.3942  -3.3933  -3.1936  -3.1770  -3.1770  -3.1316
    -3.1316  -3.1014  -3.0167  -2.9637  -2.9637  -2.9569  -2.9569  -2.9566
    -2.9566  -2.9559  -2.9559  -2.8368  -2.8368  -2.7769  -2.5846  -2.5846
    -2.5543  -2.5543  -2.5207  -2.5207  -2.5122  -2.5122  -2.5095  -2.3476
    -2.3476  -2.2190  -2.2190  -2.1303  -2.1303  -1.9810  -1.9687  -1.9142
    -1.8907  -1.8907  -1.8150  -1.8150  -1.7620  -1.2393  -1.2002  -1.2002
    -1.1963  -1.1963  -1.1955  -1.1402  -1.1193  -1.1193  -1.0752  -1.0354
    -1.0354  -0.9710  -0.9710  -0.9025  -0.9025  -0.8778  -0.8333  -0.7177
    -0.6789  -0.6789  -0.6209  -0.6209  -0.6023  -0.3754  -0.3754  -0.3525
    -0.1311  -0.0945  -0.0945  -0.0157  -0.0157   0.0178   0.0269   0.0362
     0.0362   0.0698   0.0698   0.1247   0.1247   0.1823   0.1823   0.6700
     2.7635   2.7635   2.8073   2.8073   2.8176   2.8176   2.8235   2.8235
     2.8235   2.8326   2.8326   2.8406   2.8585   2.8609   2.8609   2.9525
     2.9779   2.9779   3.0164   3.0164   3.0358   3.3508   3.3508   3.3684
     3.3738   3.3738   3.3824   3.3953   3.4354   3.4354   3.4479   3.4807
     3.4807   3.5317   3.5317   3.5671   3.5671   3.6209   3.6318   3.6389
     3.7281   3.7281   3.7568   3.7568   3.7651   3.7651   4.3301   4.3755
     4.3755   4.4469   4.4469   4.4729

          k = 0.0750 0.0433 0.0000 (126307 PWs)   bands (ev):

   -60.2545 -60.2387 -60.2375 -60.2375 -60.2354 -60.2354 -60.2344 -60.2196
   -60.2196 -60.2186 -60.2184 -60.2184 -60.2184 -60.2184 -60.2174 -60.2174
   -34.5456 -34.5456 -34.5451 -34.4822 -34.4822 -34.4813 -34.4813 -34.4768
   -34.4768 -34.3896 -34.3813 -34.3792 -34.3792 -34.3581 -34.3581 -34.3496
   -34.3477 -34.3477 -34.3473 -34.3473 -34.3472 -34.3430 -34.3430 -34.3410
   -34.3364 -34.3364 -34.3271 -34.3271 -34.3111 -34.3111 -34.3090 -34.3088
   -34.3088 -34.3088 -34.3088 -34.3068 -34.3068 -34.2698 -34.2698 -34.2688
   -34.2323 -34.2304 -34.2304 -34.2254 -34.2254 -34.2225 -34.1867 -34.1857
   -13.4098 -12.7051 -12.6505 -12.6505 -12.5453 -12.5453 -12.4948 -12.1052
   -11.8184 -11.7963 -11.7963 -11.7540 -11.7540 -11.7338 -11.6708 -11.6708
   -11.6009 -11.6008 -11.5827 -11.5747 -11.5747 -11.5384 -11.5384 -11.3869
   -11.3869 -11.3806 -11.3772 -11.3772 -11.3567 -11.3567 -11.3286 -11.3286
    -5.0778  -5.0778  -5.0767  -4.9269  -4.4473  -4.4473  -4.4447  -4.4447
    -4.4113  -4.4113  -4.3396  -4.3396  -4.3346  -4.3329  -4.3211  -4.3211
    -4.3202  -4.3202  -4.2365  -4.2365  -4.1254  -4.1254  -4.0982  -4.0982
    -4.0876  -3.3934  -3.3934  -3.3920  -3.1991  -3.1807  -3.1807  -3.1264
    -3.1264  -3.0885  -3.0403  -2.9698  -2.9698  -2.9686  -2.9686  -2.9601
    -2.9601  -2.9585  -2.9585  -2.8245  -2.8245  -2.7527  -2.5897  -2.5897
    -2.5539  -2.5539  -2.5134  -2.5134  -2.5121  -2.5121  -2.5083  -2.3656
    -2.3656  -2.2074  -2.2074  -2.1058  -2.1058  -1.9847  -1.9670  -1.9288
    -1.9039  -1.9039  -1.8134  -1.8134  -1.7463  -1.2556  -1.2090  -1.2090
    -1.1957  -1.1957  -1.1946  -1.1562  -1.1127  -1.1127  -1.0589  -1.0489
    -1.0489  -0.9723  -0.9723  -0.8898  -0.8898  -0.8805  -0.8196  -0.7293
    -0.6806  -0.6806  -0.6111  -0.6111  -0.5913  -0.3865  -0.3865  -0.3540
    -0.1451  -0.1020  -0.1020  -0.0079  -0.0079   0.0147   0.0407   0.0407
     0.0439   0.0597   0.0597   0.1252   0.1252   0.1944   0.1944   0.6692
     2.7536   2.7536   2.8080   2.8080   2.8150   2.8150   2.8207   2.8207
     2.8241   2.8357   2.8357   2.8444   2.8580   2.8614   2.8614   2.9452
     2.9771   2.9771   3.0217   3.0217   3.0451   3.3354   3.3354   3.3659
     3.3737   3.3737   3.3798   3.3982   3.4321   3.4349   3.4349   3.4689
     3.4689   3.5512   3.5512   3.5724   3.5724   3.6269   3.6370   3.6393
     3.7239   3.7239   3.7608   3.7608   3.7683   3.7683   4.3149   4.3716
     4.3717   4.4573   4.4573   4.4862

          k = 0.0875 0.0505 0.0000 (126289 PWs)   bands (ev):

   -60.2544 -60.2390 -60.2377 -60.2377 -60.2352 -60.2352 -60.2341 -60.2198
   -60.2198 -60.2186 -60.2184 -60.2184 -60.2184 -60.2184 -60.2173 -60.2173
   -34.5454 -34.5454 -34.5446 -34.4825 -34.4825 -34.4818 -34.4818 -34.4762
   -34.4762 -34.3931 -34.3812 -34.3811 -34.3811 -34.3564 -34.3564 -34.3503
   -34.3493 -34.3493 -34.3476 -34.3476 -34.3436 -34.3426 -34.3426 -34.3403
   -34.3359 -34.3359 -34.3253 -34.3253 -34.3115 -34.3115 -34.3091 -34.3088
   -34.3088 -34.3088 -34.3088 -34.3065 -34.3065 -34.2701 -34.2701 -34.2687
   -34.2331 -34.2310 -34.2310 -34.2252 -34.2252 -34.2217 -34.1871 -34.1858
   -13.4080 -12.7221 -12.6580 -12.6580 -12.5354 -12.5354 -12.4769 -12.1045
   -11.8252 -11.7993 -11.7993 -11.7500 -11.7500 -11.7266 -11.6830 -11.6830
   -11.6007 -11.6007 -11.5857 -11.5748 -11.5748 -11.5286 -11.5286 -11.3922
   -11.3922 -11.3817 -11.3771 -11.3771 -11.3568 -11.3568 -11.3243 -11.3243
    -5.0752  -5.0752  -5.0737  -4.9247  -4.4489  -4.4488  -4.4487  -4.4487
    -4.4070  -4.4070  -4.3552  -4.3552  -4.3400  -4.3377  -4.3217  -4.3217
    -4.3205  -4.3205  -4.2359  -4.2358  -4.1056  -4.1056  -4.0990  -4.0990
    -4.0846  -3.3923  -3.3923  -3.3905  -3.2041  -3.1841  -3.1841  -3.1212
    -3.1212  -3.0749  -3.0637  -2.9802  -2.9802  -2.9766  -2.9766  -2.9643
    -2.9643  -2.9616  -2.9616  -2.8121  -2.8121  -2.7283  -2.5946  -2.5946
    -2.5534  -2.5534  -2.5120  -2.5120  -2.5068  -2.5059  -2.5059  -2.3827
    -2.3827  -2.1939  -2.1939  -2.0811  -2.0811  -1.9891  -1.9651  -1.9433
    -1.9181  -1.9181  -1.8128  -1.8128  -1.7305  -1.2718  -1.2179  -1.2179
    -1.1950  -1.1950  -1.1936  -1.1734  -1.1064  -1.1064  -1.0625  -1.0624
    -1.0425  -0.9738  -0.9738  -0.8836  -0.8773  -0.8773  -0.8050  -0.7410
    -0.6817  -0.6817  -0.6006  -0.6006  -0.5804  -0.3993  -0.3993  -0.3559
    -0.1587  -0.1094  -0.1094  -0.0001  -0.0001   0.0111   0.0457   0.0457
     0.0497   0.0497   0.0610   0.1257   0.1257   0.2066   0.2066   0.6684
     2.7433   2.7433   2.8087   2.8087   2.8121   2.8121   2.8171   2.8171
     2.8252   2.8378   2.8378   2.8486   2.8573   2.8620   2.8620   2.9381
     2.9770   2.9771   3.0271   3.0271   3.0545   3.3207   3.3207   3.3630
     3.3735   3.3735   3.3767   3.4017   3.4166   3.4344   3.4344   3.4567
     3.4567   3.5709   3.5709   3.5771   3.5771   3.6211   3.6348   3.6577
     3.7197   3.7197   3.7655   3.7655   3.7714   3.7714   4.2996   4.3683
     4.3683   4.4682   4.4682   4.4931

          k = 0.1000 0.0577 0.0000 (126269 PWs)   bands (ev):

   -60.2544 -60.2394 -60.2378 -60.2378 -60.2350 -60.2350 -60.2337 -60.2200
   -60.2200 -60.2187 -60.2184 -60.2184 -60.2184 -60.2184 -60.2171 -60.2171
   -34.5451 -34.5451 -34.5441 -34.4828 -34.4828 -34.4824 -34.4824 -34.4755
   -34.4755 -34.3966 -34.3829 -34.3829 -34.3811 -34.3548 -34.3548 -34.3510
   -34.3509 -34.3509 -34.3479 -34.3479 -34.3422 -34.3422 -34.3401 -34.3396
   -34.3353 -34.3353 -34.3235 -34.3235 -34.3119 -34.3119 -34.3092 -34.3088
   -34.3088 -34.3088 -34.3088 -34.3062 -34.3062 -34.2704 -34.2704 -34.2686
   -34.2339 -34.2316 -34.2316 -34.2250 -34.2250 -34.2209 -34.1877 -34.1859
   -13.4058 -12.7389 -12.6653 -12.6653 -12.5252 -12.5252 -12.4589 -12.1036
   -11.8320 -11.8022 -11.8022 -11.7459 -11.7459 -11.7195 -11.6953 -11.6953
   -11.6006 -11.6006 -11.5891 -11.5750 -11.5750 -11.5191 -11.5191 -11.3976
   -11.3976 -11.3830 -11.3770 -11.3770 -11.3569 -11.3569 -11.3200 -11.3200
    -5.0722  -5.0722  -5.0703  -4.9222  -4.4534  -4.4534  -4.4502  -4.4502
    -4.4025  -4.4025  -4.3704  -4.3704  -4.3462  -4.3433  -4.3224  -4.3224
    -4.3209  -4.3209  -4.2351  -4.2351  -4.0999  -4.0999  -4.0856  -4.0856
    -4.0811  -3.3911  -3.3911  -3.3887  -3.2085  -3.1873  -3.1873  -3.1159
    -3.1159  -3.0871  -3.0607  -2.9918  -2.9918  -2.9842  -2.9842  -2.9692
    -2.9692  -2.9650  -2.9650  -2.7996  -2.7996  -2.7040  -2.5992  -2.5992
    -2.5529  -2.5529  -2.5119  -2.5119  -2.5051  -2.4984  -2.4984  -2.3990
    -2.3990  -2.1788  -2.1788  -2.0560  -2.0560  -1.9941  -1.9628  -1.9577
    -1.9331  -1.9330  -1.8132  -1.8132  -1.7146  -1.2880  -1.2268  -1.2268
    -1.1942  -1.1941  -1.1923  -1.1917  -1.1006  -1.1006  -1.0759  -1.0759
    -1.0263  -0.9756  -0.9756  -0.8872  -0.8649  -0.8649  -0.7897  -0.7526
    -0.6822  -0.6822  -0.5895  -0.5895  -0.5696  -0.4136  -0.4136  -0.3580
    -0.1718  -0.1165  -0.1165   0.0070   0.0075   0.0075   0.0401   0.0401
     0.0511   0.0511   0.0781   0.1263   0.1263   0.2190   0.2190   0.6674
     2.7327   2.7327   2.8092   2.8092   2.8096   2.8096   2.8129   2.8129
     2.8268   2.8391   2.8391   2.8531   2.8566   2.8627   2.8627   2.9312
     2.9777   2.9777   3.0324   3.0324   3.0640   3.3067   3.3067   3.3597
     3.3731   3.3733   3.3733   3.4015   3.4057   3.4337   3.4337   3.4440
     3.4440   3.5812   3.5812   3.5906   3.5906   3.6144   3.6322   3.6763
     3.7155   3.7155   3.7709   3.7709   3.7744   3.7744   4.2841   4.3655
     4.3655   4.4795   4.4795   4.4907

          k = 0.1125 0.0650 0.0000 (126299 PWs)   bands (ev):

   -60.2543 -60.2397 -60.2380 -60.2380 -60.2348 -60.2348 -60.2334 -60.2202
   -60.2202 -60.2187 -60.2184 -60.2184 -60.2184 -60.2184 -60.2170 -60.2170
   -34.5447 -34.5447 -34.5436 -34.4830 -34.4830 -34.4830 -34.4830 -34.4748
   -34.4748 -34.4000 -34.3848 -34.3848 -34.3810 -34.3532 -34.3532 -34.3525
   -34.3524 -34.3517 -34.3482 -34.3482 -34.3418 -34.3418 -34.3389 -34.3366
   -34.3347 -34.3347 -34.3217 -34.3217 -34.3123 -34.3123 -34.3093 -34.3088
   -34.3088 -34.3088 -34.3088 -34.3059 -34.3059 -34.2707 -34.2707 -34.2684
   -34.2348 -34.2323 -34.2323 -34.2248 -34.2248 -34.2200 -34.1883 -34.1860
   -13.4034 -12.7556 -12.6724 -12.6724 -12.5149 -12.5149 -12.4409 -12.1026
   -11.8388 -11.8051 -11.8051 -11.7417 -11.7417 -11.7123 -11.7077 -11.7077
   -11.6004 -11.6004 -11.5931 -11.5752 -11.5752 -11.5099 -11.5099 -11.4030
   -11.4030 -11.3844 -11.3768 -11.3768 -11.3570 -11.3570 -11.3159 -11.3159
    -5.0688  -5.0688  -5.0664  -4.9193  -4.4587  -4.4587  -4.4513  -4.4513
    -4.3978  -4.3978  -4.3852  -4.3852  -4.3531  -4.3494  -4.3233  -4.3233
    -4.3213  -4.3213  -4.2343  -4.2343  -4.1009  -4.1009  -4.0772  -4.0654
    -4.0654  -3.3898  -3.3898  -3.3868  -3.2124  -3.1903  -3.1903  -3.1106
    -3.1106  -3.1104  -3.0459  -3.0034  -3.0034  -2.9924  -2.9924  -2.9749
    -2.9749  -2.9688  -2.9688  -2.7871  -2.7871  -2.6796  -2.6034  -2.6034
    -2.5523  -2.5523  -2.5118  -2.5118  -2.5031  -2.4907  -2.4907  -2.4143
    -2.4143  -2.1621  -2.1621  -2.0308  -2.0308  -1.9998  -1.9719  -1.9603
    -1.9488  -1.9488  -1.8145  -1.8145  -1.6987  -1.3041  -1.2356  -1.2356
    -1.2108  -1.1932  -1.1932  -1.1909  -1.0953  -1.0953  -1.0894  -1.0893
    -1.0101  -0.9776  -0.9776  -0.8913  -0.8527  -0.8527  -0.7741  -0.7642
    -0.6822  -0.6822  -0.5779  -0.5779  -0.5590  -0.4292  -0.4292  -0.3603
    -0.1844  -0.1235  -0.1235   0.0025   0.0151   0.0151   0.0306   0.0306
     0.0567   0.0567   0.0952   0.1269   0.1270   0.2314   0.2314   0.6662
     2.7219   2.7219   2.8062   2.8062   2.8080   2.8080   2.8106   2.8106
     2.8288   2.8395   2.8395   2.8558   2.8579   2.8634   2.8634   2.9245
     2.9789   2.9789   3.0377   3.0377   3.0737   3.2935   3.2935   3.3559
     3.3692   3.3731   3.3731   3.3868   3.4102   3.4310   3.4310   3.4330
     3.4330   3.5848   3.5848   3.6070   3.6102   3.6102   3.6293   3.6950
     3.7112   3.7112   3.7770   3.7770   3.7772   3.7772   4.2685   4.3631
     4.3631   4.4880   4.4914   4.4914

          k = 0.1250 0.0722 0.0000 (126307 PWs)   bands (ev):

   -60.2542 -60.2401 -60.2381 -60.2381 -60.2346 -60.2346 -60.2330 -60.2204
   -60.2204 -60.2188 -60.2184 -60.2184 -60.2184 -60.2184 -60.2168 -60.2168
   -34.5444 -34.5444 -34.5429 -34.4836 -34.4836 -34.4832 -34.4832 -34.4741
   -34.4741 -34.4035 -34.3866 -34.3866 -34.3809 -34.3540 -34.3540 -34.3524
   -34.3516 -34.3516 -34.3485 -34.3485 -34.3414 -34.3414 -34.3382 -34.3340
   -34.3340 -34.3331 -34.3199 -34.3199 -34.3127 -34.3127 -34.3095 -34.3088
   -34.3088 -34.3088 -34.3088 -34.3056 -34.3056 -34.2711 -34.2711 -34.2683
   -34.2356 -34.2330 -34.2330 -34.2246 -34.2246 -34.2192 -34.1889 -34.1862
   -13.4006 -12.7722 -12.6793 -12.6793 -12.5045 -12.5045 -12.4229 -12.1015
   -11.8455 -11.8078 -11.8078 -11.7375 -11.7374 -11.7203 -11.7203 -11.7051
   -11.6002 -11.6002 -11.5974 -11.5754 -11.5754 -11.5008 -11.5008 -11.4085
   -11.4085 -11.3860 -11.3767 -11.3767 -11.3572 -11.3572 -11.3119 -11.3119
    -5.0650  -5.0650  -5.0620  -4.9162  -4.4646  -4.4646  -4.4522  -4.4522
    -4.3997  -4.3997  -4.3929  -4.3929  -4.3607  -4.3562  -4.3242  -4.3242
    -4.3218  -4.3218  -4.2334  -4.2334  -4.1021  -4.1021  -4.0728  -4.0449
    -4.0449  -3.3883  -3.3883  -3.3846  -3.2158  -3.1931  -3.1931  -3.1335
    -3.1053  -3.1053  -3.0306  -3.0150  -3.0150  -3.0012  -3.0012  -2.9813
    -2.9813  -2.9729  -2.9729  -2.7746  -2.7746  -2.6552  -2.6074  -2.6074
    -2.5517  -2.5517  -2.5117  -2.5117  -2.5010  -2.4830  -2.4830  -2.4287
    -2.4287  -2.1439  -2.1439  -2.0062  -2.0053  -2.0053  -1.9860  -1.9653
    -1.9653  -1.9574  -1.8168  -1.8168  -1.6827  -1.3202  -1.2444  -1.2444
    -1.2306  -1.1922  -1.1922  -1.1893  -1.1027  -1.1027  -1.0904  -1.0904
    -0.9939  -0.9798  -0.9798  -0.8958  -0.8408  -0.8408  -0.7757  -0.7583
    -0.6816  -0.6816  -0.5658  -0.5658  -0.5487  -0.4462  -0.4462  -0.3630
    -0.1965  -0.1302  -0.1302  -0.0026   0.0214   0.0214   0.0225   0.0225
     0.0626   0.0626   0.1124   0.1277   0.1277   0.2438   0.2438   0.6649
     2.7108   2.7108   2.8025   2.8025   2.8031   2.8031   2.8116   2.8116
     2.8314   2.8389   2.8389   2.8550   2.8630   2.8642   2.8642   2.9180
     2.9808   2.9808   3.0429   3.0429   3.0836   3.2812   3.2812   3.3517
     3.3648   3.3724   3.3729   3.3729   3.4153   3.4177   3.4177   3.4322
     3.4322   3.5879   3.5879   3.5987   3.6261   3.6298   3.6298   3.7068
     3.7068   3.7138   3.7800   3.7800   3.7838   3.7838   4.2528   4.3612
     4.3612   4.4849   4.5036   4.5036

          k = 0.1375 0.0794 0.0000 (126297 PWs)   bands (ev):

   -60.2542 -60.2404 -60.2383 -60.2383 -60.2344 -60.2344 -60.2327 -60.2206
   -60.2206 -60.2188 -60.2184 -60.2184 -60.2184 -60.2184 -60.2167 -60.2167
   -34.5440 -34.5440 -34.5422 -34.4844 -34.4844 -34.4834 -34.4834 -34.4734
   -34.4733 -34.4069 -34.3885 -34.3885 -34.3807 -34.3554 -34.3554 -34.3531
   -34.3501 -34.3501 -34.3488 -34.3488 -34.3410 -34.3410 -34.3375 -34.3333
   -34.3332 -34.3296 -34.3181 -34.3181 -34.3132 -34.3132 -34.3096 -34.3088
   -34.3088 -34.3088 -34.3088 -34.3053 -34.3053 -34.2715 -34.2715 -34.2681
   -34.2364 -34.2337 -34.2337 -34.2245 -34.2245 -34.2184 -34.1897 -34.1864
   -13.3976 -12.7887 -12.6860 -12.6860 -12.4938 -12.4938 -12.4048 -12.1003
   -11.8522 -11.8105 -11.8105 -11.7331 -11.7331 -11.7330 -11.7330 -11.6979
   -11.6022 -11.6000 -11.6000 -11.5756 -11.5756 -11.4921 -11.4920 -11.4140
   -11.4140 -11.3878 -11.3765 -11.3765 -11.3573 -11.3573 -11.3080 -11.3080
    -5.0608  -5.0608  -5.0573  -4.9127  -4.4710  -4.4709  -4.4529  -4.4529
    -4.4137  -4.4137  -4.3879  -4.3879  -4.3690  -4.3636  -4.3253  -4.3253
    -4.3223  -4.3223  -4.2324  -4.2324  -4.1033  -4.1033  -4.0679  -4.0243
    -4.0243  -3.3866  -3.3866  -3.3823  -3.2188  -3.1956  -3.1956  -3.1565
    -3.1000  -3.1000  -3.0265  -3.0265  -3.0147  -3.0104  -3.0104  -2.9884
    -2.9884  -2.9772  -2.9772  -2.7620  -2.7620  -2.6307  -2.6111  -2.6111
    -2.5510  -2.5510  -2.5116  -2.5116  -2.4986  -2.4752  -2.4752  -2.4421
    -2.4421  -2.1243  -2.1243  -2.0132  -2.0000  -1.9825  -1.9825  -1.9797
    -1.9797  -1.9542  -1.8199  -1.8199  -1.6666  -1.3362  -1.2531  -1.2531
    -1.2509  -1.1910  -1.1910  -1.1876  -1.1160  -1.1159  -1.0861  -1.0861
    -0.9822  -0.9822  -0.9778  -0.9008  -0.8290  -0.8290  -0.7871  -0.7423
    -0.6806  -0.6806  -0.5533  -0.5533  -0.5385  -0.4644  -0.4644  -0.3660
    -0.2080  -0.1367  -0.1367  -0.0082   0.0124   0.0124   0.0298   0.0298
     0.0685   0.0685   0.1285   0.1285   0.1295   0.2563   0.2563   0.6635
     2.6994   2.6994   2.7966   2.7966   2.8001   2.8001   2.8128   2.8128
     2.8345   2.8374   2.8374   2.8540   2.8651   2.8651   2.8684   2.9118
     2.9832   2.9832   3.0480   3.0480   3.0935   3.2696   3.2696   3.3471
     3.3585   3.3601   3.3727   3.3727   3.4041   3.4041   3.4208   3.4313
     3.4313   3.5896   3.5906   3.5906   3.6226   3.6493   3.6493   3.7025
     3.7025   3.7326   3.7827   3.7827   3.7913   3.7913   4.2369   4.3598
     4.3598   4.4815   4.5162   4.5162

          k = 0.1500 0.0866 0.0000 (126315 PWs)   bands (ev):

   -60.2541 -60.2408 -60.2384 -60.2384 -60.2342 -60.2342 -60.2323 -60.2208
   -60.2208 -60.2189 -60.2184 -60.2184 -60.2184 -60.2184 -60.2166 -60.2166
   -34.5436 -34.5435 -34.5414 -34.4852 -34.4852 -34.4836 -34.4836 -34.4726
   -34.4726 -34.4104 -34.3904 -34.3904 -34.3806 -34.3569 -34.3569 -34.3538
   -34.3490 -34.3490 -34.3486 -34.3486 -34.3405 -34.3405 -34.3368 -34.3324
   -34.3324 -34.3262 -34.3162 -34.3162 -34.3136 -34.3136 -34.3098 -34.3088
   -34.3088 -34.3088 -34.3088 -34.3051 -34.3051 -34.2719 -34.2719 -34.2679
   -34.2372 -34.2345 -34.2345 -34.2244 -34.2244 -34.2176 -34.1905 -34.1865
   -13.3943 -12.8050 -12.6925 -12.6925 -12.4830 -12.4830 -12.3868 -12.0989
   -11.8588 -11.8131 -11.8131 -11.7459 -11.7458 -11.7288 -11.7288 -11.6907
   -11.6075 -11.5998 -11.5998 -11.5758 -11.5758 -11.4835 -11.4835 -11.4196
   -11.4196 -11.3898 -11.3763 -11.3763 -11.3575 -11.3575 -11.3042 -11.3042
    -5.0563  -5.0562  -5.0520  -4.9089  -4.4779  -4.4779  -4.4534  -4.4534
    -4.4273  -4.4273  -4.3828  -4.3828  -4.3779  -4.3714  -4.3265  -4.3265
    -4.3228  -4.3228  -4.2313  -4.2313  -4.1047  -4.1047  -4.0626  -4.0034
    -4.0034  -3.3848  -3.3848  -3.3797  -3.2213  -3.1978  -3.1978  -3.1795
    -3.0947  -3.0947  -3.0381  -3.0381  -3.0199  -3.0199  -2.9983  -2.9963
    -2.9963  -2.9819  -2.9819  -2.7494  -2.7494  -2.6144  -2.6144  -2.6062
    -2.5503  -2.5503  -2.5115  -2.5115  -2.4960  -2.4674  -2.4674  -2.4546
    -2.4546  -2.1035  -2.1035  -2.0208  -2.0138  -2.0003  -2.0003  -1.9539
    -1.9539  -1.9508  -1.8238  -1.8238  -1.6505  -1.3521  -1.2716  -1.2618
    -1.2618  -1.1897  -1.1897  -1.1857  -1.1291  -1.1291  -1.0824  -1.0824
    -0.9848  -0.9848  -0.9618  -0.9062  -0.8175  -0.8175  -0.7985  -0.7263
    -0.6791  -0.6791  -0.5405  -0.5405  -0.5286  -0.4837  -0.4837  -0.3692
    -0.2190  -0.1429  -0.1429  -0.0142   0.0037   0.0037   0.0369   0.0369
     0.0744   0.0744   0.1293   0.1293   0.1466   0.2687   0.2687   0.6619
     2.6879   2.6879   2.7902   2.7902   2.7970   2.7970   2.8141   2.8141
     2.8351   2.8351   2.8380   2.8530   2.8659   2.8659   2.8741   2.9058
     2.9861   2.9861   3.0529   3.0529   3.1036   3.2589   3.2589   3.3422
     3.3450   3.3550   3.3724   3.3724   3.3903   3.3903   3.4269   3.4304
     3.4304   3.5799   3.5928   3.5928   3.6187   3.6686   3.6686   3.6981
     3.6981   3.7514   3.7852   3.7852   3.7995   3.7995   4.2209   4.3587
     4.3587   4.4778   4.5194   4.5194

          k = 0.1625 0.0938 0.0000 (126301 PWs)   bands (ev):

   -60.2540 -60.2411 -60.2385 -60.2385 -60.2340 -60.2340 -60.2320 -60.2210
   -60.2210 -60.2190 -60.2184 -60.2184 -60.2184 -60.2184 -60.2164 -60.2164
   -34.5431 -34.5431 -34.5406 -34.4860 -34.4860 -34.4838 -34.4838 -34.4718
   -34.4718 -34.4138 -34.3922 -34.3922 -34.3804 -34.3583 -34.3583 -34.3545
   -34.3493 -34.3493 -34.3471 -34.3471 -34.3401 -34.3401 -34.3361 -34.3316
   -34.3316 -34.3227 -34.3144 -34.3144 -34.3140 -34.3140 -34.3100 -34.3088
   -34.3088 -34.3088 -34.3088 -34.3048 -34.3048 -34.2724 -34.2724 -34.2677
   -34.2380 -34.2353 -34.2353 -34.2243 -34.2243 -34.2168 -34.1914 -34.1868
   -13.3907 -12.8212 -12.6987 -12.6987 -12.4721 -12.4721 -12.3688 -12.0974
   -11.8654 -11.8156 -11.8156 -11.7588 -11.7588 -11.7243 -11.7243 -11.6835
   -11.6132 -11.5995 -11.5995 -11.5761 -11.5761 -11.4752 -11.4752 -11.4252
   -11.4252 -11.3919 -11.3761 -11.3761 -11.3577 -11.3577 -11.3005 -11.3005
    -5.0513  -5.0513  -5.0464  -4.9047  -4.4853  -4.4853  -4.4536  -4.4536
    -4.4405  -4.4405  -4.3875  -4.3798  -4.3775  -4.3775  -4.3278  -4.3278
    -4.3233  -4.3233  -4.2301  -4.2301  -4.1061  -4.1061  -4.0568  -3.9824
    -3.9824  -3.3828  -3.3828  -3.3770  -3.2235  -3.2022  -3.1998  -3.1998
    -3.0895  -3.0895  -3.0497  -3.0497  -3.0297  -3.0297  -3.0047  -3.0047
    -2.9867  -2.9867  -2.9814  -2.7367  -2.7367  -2.6173  -2.6173  -2.5818
    -2.5495  -2.5495  -2.5114  -2.5114  -2.4931  -2.4662  -2.4662  -2.4595
    -2.4595  -2.0815  -2.0815  -2.0290  -2.0275  -2.0186  -2.0186  -1.9470
    -1.9281  -1.9281  -1.8286  -1.8285  -1.6344  -1.3679  -1.2927  -1.2703
    -1.2703  -1.1883  -1.1883  -1.1836  -1.1421  -1.1421  -1.0793  -1.0793
    -0.9877  -0.9876  -0.9459  -0.9121  -0.8098  -0.8062  -0.8062  -0.7104
    -0.6772  -0.6772  -0.5273  -0.5273  -0.5190  -0.5040  -0.5040  -0.3727
    -0.2294  -0.1488  -0.1488  -0.0207  -0.0048  -0.0048   0.0439   0.0439
     0.0803   0.0803   0.1303   0.1303   0.1637   0.2812   0.2812   0.6601
     2.6763   2.6763   2.7836   2.7836   2.7939   2.7939   2.8155   2.8155
     2.8318   2.8318   2.8421   2.8519   2.8668   2.8668   2.8801   2.8999
     2.9894   2.9894   3.0577   3.0577   3.1138   3.2490   3.2490   3.3319
     3.3368   3.3495   3.3722   3.3722   3.3763   3.3763   3.4294   3.4294
     3.4334   3.5694   3.5946   3.5946   3.6145   3.6877   3.6877   3.6937
     3.6937   3.7702   3.7877   3.7877   3.8083   3.8083   4.2048   4.3580
     4.3580   4.4738   4.5217   4.5217

          k = 0.1750 0.1010 0.0000 (126297 PWs)   bands (ev):

   -60.2539 -60.2414 -60.2387 -60.2386 -60.2337 -60.2337 -60.2316 -60.2212
   -60.2212 -60.2191 -60.2184 -60.2184 -60.2184 -60.2184 -60.2163 -60.2163
   -34.5426 -34.5426 -34.5397 -34.4869 -34.4869 -34.4839 -34.4839 -34.4709
   -34.4709 -34.4172 -34.3941 -34.3941 -34.3802 -34.3597 -34.3597 -34.3552
   -34.3495 -34.3495 -34.3457 -34.3457 -34.3397 -34.3397 -34.3354 -34.3307
   -34.3307 -34.3193 -34.3145 -34.3145 -34.3126 -34.3126 -34.3102 -34.3088
   -34.3088 -34.3088 -34.3088 -34.3046 -34.3046 -34.2730 -34.2730 -34.2675
   -34.2388 -34.2361 -34.2361 -34.2242 -34.2242 -34.2160 -34.1924 -34.1870
   -13.3869 -12.8372 -12.7048 -12.7047 -12.4610 -12.4610 -12.3507 -12.0959
   -11.8719 -11.8180 -11.8180 -11.7719 -11.7719 -11.7198 -11.7198 -11.6764
   -11.6193 -11.5993 -11.5993 -11.5763 -11.5763 -11.4672 -11.4672 -11.4309
   -11.4309 -11.3941 -11.3759 -11.3759 -11.3579 -11.3579 -11.2969 -11.2969
    -5.0460  -5.0460  -5.0403  -4.9003  -4.4933  -4.4933  -4.4537  -4.4537
    -4.4533  -4.4533  -4.3977  -4.3886  -4.3721  -4.3721  -4.3292  -4.3292
    -4.3239  -4.3239  -4.2288  -4.2288  -4.1077  -4.1077  -4.0506  -3.9613
    -3.9613  -3.3807  -3.3807  -3.3740  -3.2254  -3.2249  -3.2015  -3.2015
    -3.0843  -3.0843  -3.0613  -3.0613  -3.0397  -3.0397  -3.0138  -3.0138
    -2.9918  -2.9918  -2.9640  -2.7241  -2.7241  -2.6199  -2.6199  -2.5573
    -2.5486  -2.5486  -2.5113  -2.5113  -2.4901  -2.4769  -2.4769  -2.4517
    -2.4517  -2.0585  -2.0585  -2.0410  -2.0379  -2.0374  -2.0374  -1.9430
    -1.9022  -1.9022  -1.8340  -1.8340  -1.6182  -1.3836  -1.3142  -1.2787
    -1.2787  -1.1868  -1.1868  -1.1813  -1.1549  -1.1549  -1.0769  -1.0769
    -0.9907  -0.9907  -0.9301  -0.9184  -0.8210  -0.7952  -0.7952  -0.6946
    -0.6751  -0.6751  -0.5253  -0.5253  -0.5139  -0.5139  -0.5096  -0.3765
    -0.2392  -0.1543  -0.1543  -0.0275  -0.0131  -0.0131   0.0507   0.0507
     0.0860   0.0860   0.1312   0.1312   0.1806   0.2936   0.2936   0.6582
     2.6646   2.6646   2.7767   2.7767   2.7909   2.7909   2.8170   2.8170
     2.8278   2.8278   2.8467   2.8508   2.8677   2.8677   2.8863   2.8943
     2.9931   2.9931   3.0624   3.0624   3.1240   3.2399   3.2399   3.3194
     3.3312   3.3438   3.3622   3.3622   3.3720   3.3720   3.4283   3.4283
     3.4404   3.5582   3.5960   3.5960   3.6100   3.6893   3.6893   3.7066
     3.7066   3.7891   3.7900   3.7900   3.8178   3.8178   4.1886   4.3576
     4.3576   4.4694   4.5239   4.5239

          k = 0.1875 0.1083 0.0000 (126287 PWs)   bands (ev):

   -60.2538 -60.2418 -60.2388 -60.2388 -60.2335 -60.2335 -60.2313 -60.2215
   -60.2215 -60.2192 -60.2184 -60.2184 -60.2184 -60.2184 -60.2162 -60.2162
   -34.5420 -34.5420 -34.5387 -34.4878 -34.4878 -34.4840 -34.4840 -34.4701
   -34.4701 -34.4206 -34.3959 -34.3959 -34.3800 -34.3611 -34.3611 -34.3558
   -34.3498 -34.3498 -34.3442 -34.3442 -34.3392 -34.3392 -34.3347 -34.3297
   -34.3297 -34.3158 -34.3149 -34.3149 -34.3107 -34.3107 -34.3104 -34.3088
   -34.3088 -34.3088 -34.3088 -34.3043 -34.3043 -34.2735 -34.2735 -34.2673
   -34.2395 -34.2369 -34.2369 -34.2241 -34.2241 -34.2152 -34.1934 -34.1872
   -13.3827 -12.8531 -12.7106 -12.7106 -12.4497 -12.4497 -12.3327 -12.0942
   -11.8783 -11.8203 -11.8203 -11.7850 -11.7850 -11.7152 -11.7152 -11.6692
   -11.6258 -11.5990 -11.5990 -11.5766 -11.5766 -11.4594 -11.4594 -11.4366
   -11.4366 -11.3966 -11.3757 -11.3757 -11.3582 -11.3581 -11.2934 -11.2934
    -5.0403  -5.0403  -5.0338  -4.8955  -4.5017  -4.5017  -4.4657  -4.4657
    -4.4535  -4.4535  -4.4084  -4.3979  -4.3666  -4.3666  -4.3308  -4.3308
    -4.3244  -4.3244  -4.2274  -4.2274  -4.1093  -4.1093  -4.0440  -3.9400
    -3.9400  -3.3784  -3.3784  -3.3709  -3.2474  -3.2270  -3.2030  -3.2030
    -3.0791  -3.0791  -3.0729  -3.0729  -3.0499  -3.0498  -3.0234  -3.0234
    -2.9971  -2.9971  -2.9462  -2.7115  -2.7114  -2.6221  -2.6221  -2.5477
    -2.5477  -2.5327  -2.5112  -2.5112  -2.4868  -2.4866  -2.4866  -2.4439
    -2.4439  -2.0566  -2.0566  -2.0544  -2.0474  -2.0345  -2.0345  -1.9386
    -1.8763  -1.8763  -1.8400  -1.8400  -1.6020  -1.3992  -1.3359  -1.2870
    -1.2869  -1.1852  -1.1852  -1.1789  -1.1676  -1.1676  -1.0751  -1.0751
    -0.9938  -0.9938  -0.9252  -0.9143  -0.8320  -0.7845  -0.7845  -0.6790
    -0.6726  -0.6726  -0.5474  -0.5474  -0.5006  -0.5004  -0.5004  -0.3806
    -0.2484  -0.1595  -0.1595  -0.0348  -0.0212  -0.0212   0.0574   0.0574
     0.0917   0.0917   0.1323   0.1323   0.1974   0.3059   0.3059   0.6561
     2.6528   2.6528   2.7696   2.7696   2.7879   2.7879   2.8185   2.8185
     2.8229   2.8229   2.8496   2.8518   2.8686   2.8686   2.8890   2.8928
     2.9971   2.9971   3.0668   3.0668   3.1344   3.2316   3.2316   3.3072
     3.3252   3.3378   3.3481   3.3481   3.3718   3.3718   3.4271   3.4271
     3.4479   3.5463   3.5971   3.5971   3.6052   3.6849   3.6849   3.7252
     3.7252   3.7923   3.7923   3.8079   3.8280   3.8280   4.1723   4.3575
     4.3575   4.4646   4.5257   4.5257

          k = 0.2000 0.1155 0.0000 (126259 PWs)   bands (ev):

   -60.2537 -60.2421 -60.2389 -60.2389 -60.2333 -60.2333 -60.2309 -60.2217
   -60.2217 -60.2193 -60.2184 -60.2184 -60.2184 -60.2184 -60.2161 -60.2161
   -34.5414 -34.5414 -34.5377 -34.4888 -34.4888 -34.4841 -34.4841 -34.4692
   -34.4692 -34.4239 -34.3978 -34.3978 -34.3798 -34.3624 -34.3624 -34.3565
   -34.3500 -34.3500 -34.3429 -34.3429 -34.3388 -34.3388 -34.3340 -34.3287
   -34.3287 -34.3154 -34.3154 -34.3124 -34.3106 -34.3089 -34.3089 -34.3088
   -34.3088 -34.3088 -34.3088 -34.3041 -34.3041 -34.2741 -34.2741 -34.2670
   -34.2403 -34.2378 -34.2378 -34.2241 -34.2240 -34.2145 -34.1945 -34.1874
   -13.3783 -12.8689 -12.7162 -12.7162 -12.4383 -12.4383 -12.3147 -12.0924
   -11.8847 -11.8225 -11.8225 -11.7983 -11.7983 -11.7106 -11.7106 -11.6621
   -11.6328 -11.5987 -11.5987 -11.5769 -11.5769 -11.4519 -11.4519 -11.4423
   -11.4423 -11.3992 -11.3755 -11.3755 -11.3584 -11.3584 -11.2901 -11.2900
    -5.0342  -5.0342  -5.0269  -4.8904  -4.5106  -4.5106  -4.4776  -4.4776
    -4.4532  -4.4532  -4.4196  -4.4076  -4.3611  -4.3611  -4.3324  -4.3324
    -4.3250  -4.3250  -4.2259  -4.2259  -4.1111  -4.1111  -4.0369  -3.9185
    -3.9185  -3.3759  -3.3759  -3.3676  -3.2697  -3.2284  -3.2041  -3.2041
    -3.0846  -3.0846  -3.0740  -3.0740  -3.0601  -3.0601  -3.0335  -3.0335
    -3.0026  -3.0026  -2.9280  -2.6988  -2.6988  -2.6239  -2.6239  -2.5467
    -2.5467  -2.5111  -2.5111  -2.5082  -2.4956  -2.4956  -2.4833  -2.4361
    -2.4361  -2.0761  -2.0761  -2.0676  -2.0574  -2.0096  -2.0096  -1.9340
    -1.8503  -1.8503  -1.8467  -1.8467  -1.5858  -1.4147  -1.3579  -1.2950
    -1.2950  -1.1834  -1.1834  -1.1801  -1.1801  -1.1763  -1.0741  -1.0741
    -0.9972  -0.9972  -0.9323  -0.8987  -0.8430  -0.7740  -0.7740  -0.6699
    -0.6699  -0.6636  -0.5704  -0.5704  -0.4918  -0.4867  -0.4867  -0.3849
    -0.2569  -0.1644  -0.1644  -0.0425  -0.0290  -0.0290   0.0638   0.0639
     0.0971   0.0971   0.1333   0.1333   0.2141   0.3181   0.3181   0.6539
     2.6411   2.6411   2.7624   2.7624   2.7850   2.7850   2.8174   2.8174
     2.8202   2.8202   2.8483   2.8575   2.8696   2.8696   2.8838   2.8996
     3.0013   3.0013   3.0711   3.0711   3.1449   3.2240   3.2240   3.2956
     3.3188   3.3315   3.3340   3.3340   3.3717   3.3717   3.4258   3.4258
     3.4558   3.5339   3.5979   3.5979   3.6001   3.6805   3.6805   3.7435
     3.7435   3.7944   3.7944   3.8267   3.8387   3.8387   4.1559   4.3577
     4.3577   4.4595   4.5272   4.5272

          k = 0.2125 0.1227 0.0000 (126256 PWs)   bands (ev):

   -60.2536 -60.2425 -60.2390 -60.2390 -60.2331 -60.2331 -60.2306 -60.2219
   -60.2219 -60.2194 -60.2184 -60.2184 -60.2184 -60.2184 -60.2160 -60.2160
   -34.5408 -34.5408 -34.5366 -34.4898 -34.4898 -34.4842 -34.4842 -34.4682
   -34.4682 -34.4272 -34.3996 -34.3996 -34.3796 -34.3637 -34.3636 -34.3572
   -34.3502 -34.3502 -34.3415 -34.3415 -34.3383 -34.3383 -34.3334 -34.3276
   -34.3276 -34.3158 -34.3158 -34.3108 -34.3090 -34.3088 -34.3088 -34.3088
   -34.3088 -34.3071 -34.3071 -34.3039 -34.3038 -34.2748 -34.2748 -34.2668
   -34.2411 -34.2387 -34.2387 -34.2240 -34.2240 -34.2137 -34.1956 -34.1877
   -13.3736 -12.8845 -12.7216 -12.7216 -12.4268 -12.4268 -12.2967 -12.0904
   -11.8910 -11.8247 -11.8247 -11.8116 -11.8116 -11.7059 -11.7059 -11.6550
   -11.6402 -11.5984 -11.5984 -11.5773 -11.5772 -11.4480 -11.4480 -11.4447
   -11.4447 -11.4019 -11.3752 -11.3752 -11.3586 -11.3586 -11.2868 -11.2868
    -5.0278  -5.0278  -5.0195  -4.8850  -4.5199  -4.5199  -4.4890  -4.4890
    -4.4526  -4.4526  -4.4313  -4.4176  -4.3555  -4.3554  -4.3342  -4.3342
    -4.3256  -4.3256  -4.2244  -4.2244  -4.1129  -4.1129  -4.0293  -3.8970
    -3.8970  -3.3733  -3.3733  -3.3642  -3.2919  -3.2295  -3.2050  -3.2050
    -3.0963  -3.0963  -3.0703  -3.0703  -3.0690  -3.0690  -3.0441  -3.0441
    -3.0082  -3.0082  -2.9095  -2.6862  -2.6862  -2.6253  -2.6253  -2.5458
    -2.5458  -2.5111  -2.5111  -2.5037  -2.5037  -2.4837  -2.4795  -2.4283
    -2.4283  -2.0960  -2.0960  -2.0807  -2.0681  -1.9838  -1.9838  -1.9291
    -1.8539  -1.8539  -1.8244  -1.8244  -1.5696  -1.4301  -1.3801  -1.3029
    -1.3029  -1.1923  -1.1923  -1.1816  -1.1815  -1.1736  -1.0738  -1.0738
    -1.0007  -1.0007  -0.9399  -0.8832  -0.8539  -0.7638  -0.7638  -0.6670
    -0.6670  -0.6485  -0.5942  -0.5942  -0.4834  -0.4730  -0.4730  -0.3896
    -0.2648  -0.1688  -0.1688  -0.0504  -0.0366  -0.0366   0.0701   0.0701
     0.1024   0.1024   0.1344   0.1344   0.2306   0.3301   0.3301   0.6514
     2.6293   2.6293   2.7551   2.7551   2.7821   2.7821   2.8112   2.8112
     2.8219   2.8219   2.8471   2.8637   2.8705   2.8705   2.8789   2.9065
     3.0058   3.0058   3.0752   3.0752   3.1555   3.2171   3.2171   3.2845
     3.3122   3.3199   3.3199   3.3250   3.3716   3.3716   3.4245   3.4245
     3.4643   3.5208   3.5947   3.5984   3.5984   3.6761   3.6761   3.7614
     3.7614   3.7964   3.7964   3.8455   3.8501   3.8501   4.1394   4.3581
     4.3581   4.4541   4.5281   4.5281

          k = 0.2250 0.1299 0.0000 (126300 PWs)   bands (ev):

   -60.2535 -60.2428 -60.2391 -60.2391 -60.2329 -60.2328 -60.2303 -60.2221
   -60.2221 -60.2195 -60.2184 -60.2184 -60.2184 -60.2184 -60.2159 -60.2159
   -34.5402 -34.5402 -34.5354 -34.4909 -34.4909 -34.4843 -34.4843 -34.4673
   -34.4673 -34.4305 -34.4015 -34.4015 -34.3793 -34.3649 -34.3649 -34.3579
   -34.3505 -34.3505 -34.3402 -34.3402 -34.3379 -34.3379 -34.3327 -34.3265
   -34.3265 -34.3163 -34.3163 -34.3110 -34.3088 -34.3088 -34.3088 -34.3088
   -34.3057 -34.3052 -34.3052 -34.3036 -34.3036 -34.2755 -34.2755 -34.2665
   -34.2419 -34.2396 -34.2396 -34.2240 -34.2240 -34.2129 -34.1968 -34.1880
   -13.3686 -12.8999 -12.7267 -12.7267 -12.4151 -12.4151 -12.2788 -12.0884
   -11.8973 -11.8268 -11.8267 -11.8251 -11.8250 -11.7011 -11.7011 -11.6480
   -11.6479 -11.5980 -11.5980 -11.5776 -11.5776 -11.4538 -11.4538 -11.4377
   -11.4377 -11.4048 -11.3750 -11.3750 -11.3589 -11.3589 -11.2837 -11.2837
    -5.0210  -5.0210  -5.0118  -4.8793  -4.5296  -4.5296  -4.5000  -4.5000
    -4.4519  -4.4519  -4.4435  -4.4279  -4.3498  -4.3498  -4.3361  -4.3361
    -4.3262  -4.3262  -4.2228  -4.2228  -4.1149  -4.1149  -4.0213  -3.8754
    -3.8754  -3.3705  -3.3705  -3.3606  -3.3140  -3.2306  -3.2056  -3.2056
    -3.1081  -3.1081  -3.0805  -3.0805  -3.0641  -3.0641  -3.0550  -3.0550
    -3.0140  -3.0140  -2.8906  -2.6737  -2.6737  -2.6263  -2.6263  -2.5447
    -2.5447  -2.5110  -2.5110  -2.5110  -2.5110  -2.4756  -2.4591  -2.4206
    -2.4206  -2.1161  -2.1161  -2.0936  -2.0793  -1.9573  -1.9573  -1.9239
    -1.8615  -1.8615  -1.7986  -1.7986  -1.5533  -1.4454  -1.4025  -1.3106
    -1.3106  -1.2044  -1.2043  -1.1795  -1.1795  -1.1706  -1.0742  -1.0742
    -1.0044  -1.0044  -0.9479  -0.8678  -0.8646  -0.7539  -0.7539  -0.6640
    -0.6640  -0.6336  -0.6187  -0.6187  -0.4754  -0.4594  -0.4594  -0.3945
    -0.2720  -0.1729  -0.1729  -0.0587  -0.0440  -0.0440   0.0762   0.0762
     0.1074   0.1074   0.1356   0.1356   0.2469   0.3420   0.3420   0.6488
     2.6177   2.6177   2.7479   2.7479   2.7793   2.7793   2.8045   2.8045
     2.8237   2.8237   2.8458   2.8704   2.8713   2.8713   2.8742   2.9137
     3.0105   3.0105   3.0791   3.0791   3.1661   3.2107   3.2107   3.2740
     3.3052   3.3060   3.3060   3.3183   3.3715   3.3715   3.4232   3.4232
     3.4731   3.5072   3.5890   3.5988   3.5988   3.6718   3.6718   3.7789
     3.7789   3.7984   3.7984   3.8621   3.8621   3.8642   4.1228   4.3587
     4.3587   4.4483   4.5282   4.5283

          k = 0.2375 0.1371 0.0000 (126290 PWs)   bands (ev):

   -60.2533 -60.2431 -60.2392 -60.2392 -60.2326 -60.2326 -60.2299 -60.2224
   -60.2224 -60.2197 -60.2184 -60.2184 -60.2184 -60.2184 -60.2158 -60.2158
   -34.5395 -34.5395 -34.5342 -34.4920 -34.4920 -34.4844 -34.4844 -34.4663
   -34.4663 -34.4338 -34.4033 -34.4033 -34.3791 -34.3661 -34.3661 -34.3585
   -34.3507 -34.3507 -34.3390 -34.3390 -34.3374 -34.3374 -34.3320 -34.3254
   -34.3254 -34.3167 -34.3167 -34.3113 -34.3088 -34.3088 -34.3088 -34.3088
   -34.3034 -34.3034 -34.3034 -34.3034 -34.3023 -34.2762 -34.2762 -34.2662
   -34.2426 -34.2406 -34.2406 -34.2240 -34.2240 -34.2121 -34.1981 -34.1883
   -13.3633 -12.9152 -12.7317 -12.7317 -12.4033 -12.4033 -12.2609 -12.0862
   -11.9035 -11.8386 -11.8386 -11.8287 -11.8287 -11.6963 -11.6963 -11.6562
   -11.6408 -11.5977 -11.5977 -11.5779 -11.5779 -11.4596 -11.4596 -11.4310
   -11.4310 -11.4079 -11.3747 -11.3747 -11.3592 -11.3592 -11.2807 -11.2807
    -5.0139  -5.0139  -5.0037  -4.8732  -4.5397  -4.5397  -4.5106  -4.5106
    -4.4560  -4.4509  -4.4509  -4.4386  -4.3441  -4.3441  -4.3381  -4.3381
    -4.3267  -4.3267  -4.2211  -4.2211  -4.1169  -4.1169  -4.0129  -3.8538
    -3.8538  -3.3676  -3.3676  -3.3568  -3.3358  -3.2315  -3.2059  -3.2059
    -3.1200  -3.1200  -3.0907  -3.0907  -3.0661  -3.0661  -3.0593  -3.0593
    -3.0199  -3.0199  -2.8714  -2.6612  -2.6612  -2.6268  -2.6268  -2.5437
    -2.5437  -2.5177  -2.5177  -2.5110  -2.5110  -2.4714  -2.4346  -2.4131
    -2.4131  -2.1363  -2.1363  -2.1064  -2.0911  -1.9302  -1.9301  -1.9184
    -1.8696  -1.8696  -1.7728  -1.7728  -1.5370  -1.4605  -1.4251  -1.3181
    -1.3181  -1.2161  -1.2161  -1.1774  -1.1774  -1.1675  -1.0755  -1.0755
    -1.0082  -1.0082  -0.9563  -0.8752  -0.8526  -0.7443  -0.7443  -0.6609
    -0.6609  -0.6439  -0.6439  -0.6191  -0.4677  -0.4458  -0.4458  -0.3997
    -0.2785  -0.1765  -0.1765  -0.0673  -0.0512  -0.0512   0.0820   0.0820
     0.1122   0.1122   0.1367   0.1368   0.2629   0.3537   0.3537   0.6460
     2.6061   2.6061   2.7407   2.7407   2.7766   2.7766   2.7973   2.7973
     2.8255   2.8255   2.8444   2.8697   2.8721   2.8721   2.8776   2.9211
     3.0153   3.0153   3.0829   3.0829   3.1768   3.2050   3.2050   3.2639
     3.2922   3.2922   3.2980   3.3114   3.3714   3.3714   3.4218   3.4218
     3.4824   3.4931   3.5830   3.5989   3.5989   3.6675   3.6675   3.7960
     3.7960   3.8002   3.8002   3.8747   3.8747   3.8828   4.1062   4.3594
     4.3594   4.4422   4.5275   4.5275

          k = 0.2500 0.1443 0.0000 (126306 PWs)   bands (ev):

   -60.2532 -60.2434 -60.2393 -60.2393 -60.2324 -60.2324 -60.2296 -60.2226
   -60.2226 -60.2198 -60.2184 -60.2184 -60.2184 -60.2184 -60.2157 -60.2157
   -34.5388 -34.5388 -34.5329 -34.4931 -34.4931 -34.4844 -34.4844 -34.4653
   -34.4653 -34.4371 -34.4052 -34.4052 -34.3788 -34.3672 -34.3672 -34.3592
   -34.3509 -34.3509 -34.3378 -34.3378 -34.3369 -34.3369 -34.3313 -34.3242
   -34.3242 -34.3172 -34.3172 -34.3116 -34.3088 -34.3088 -34.3088 -34.3088
   -34.3032 -34.3032 -34.3016 -34.3016 -34.2990 -34.2769 -34.2769 -34.2659
   -34.2434 -34.2416 -34.2416 -34.2240 -34.2240 -34.2114 -34.1995 -34.1886
   -13.3578 -12.9303 -12.7364 -12.7364 -12.3913 -12.3913 -12.2430 -12.0840
   -11.9096 -11.8521 -11.8521 -11.8306 -11.8306 -11.6914 -11.6914 -11.6648
   -11.6337 -11.5973 -11.5973 -11.5783 -11.5783 -11.4655 -11.4655 -11.4246
   -11.4246 -11.4111 -11.3744 -11.3744 -11.3595 -11.3595 -11.2778 -11.2778
    -5.0064  -5.0064  -4.9952  -4.8669  -4.5501  -4.5501  -4.5207  -4.5207
    -4.4689  -4.4498  -4.4498  -4.4495  -4.3403  -4.3402  -4.3384  -4.3384
    -4.3273  -4.3273  -4.2193  -4.2193  -4.1190  -4.1190  -4.0041  -3.8320
    -3.8320  -3.3645  -3.3645  -3.3575  -3.3530  -3.2323  -3.2059  -3.2059
    -3.1320  -3.1320  -3.1008  -3.1008  -3.0774  -3.0774  -3.0547  -3.0547
    -3.0260  -3.0260  -2.8519  -2.6489  -2.6489  -2.6269  -2.6269  -2.5426
    -2.5426  -2.5237  -2.5237  -2.5110  -2.5110  -2.4670  -2.4100  -2.4056
    -2.4056  -2.1567  -2.1567  -2.1190  -2.1034  -1.9126  -1.9023  -1.9023
    -1.8780  -1.8780  -1.7472  -1.7472  -1.5208  -1.4755  -1.4478  -1.3253
    -1.3253  -1.2275  -1.2275  -1.1752  -1.1751  -1.1642  -1.0776  -1.0776
    -1.0122  -1.0122  -0.9651  -0.8857  -0.8374  -0.7350  -0.7350  -0.6697
    -0.6697  -0.6577  -0.6577  -0.6049  -0.4604  -0.4324  -0.4324  -0.4052
    -0.2843  -0.1798  -0.1798  -0.0762  -0.0582  -0.0582   0.0876   0.0876
     0.1168   0.1168   0.1379   0.1380   0.2788   0.3652   0.3652   0.6430
     2.5948   2.5948   2.7336   2.7336   2.7740   2.7740   2.7897   2.7897
     2.8274   2.8274   2.8431   2.8655   2.8729   2.8729   2.8854   2.9287
     3.0202   3.0202   3.0864   3.0864   3.1876   3.1997   3.1997   3.2544
     3.2787   3.2787   3.2906   3.3044   3.3714   3.3714   3.4203   3.4203
     3.4786   3.4921   3.5767   3.5989   3.5989   3.6632   3.6632   3.8019
     3.8019   3.8126   3.8126   3.8879   3.8879   3.9013   4.0895   4.3603
     4.3603   4.4357   4.5257   4.5257

          k = 0.2625 0.1516 0.0000 (126320 PWs)   bands (ev):

   -60.2531 -60.2438 -60.2394 -60.2394 -60.2322 -60.2322 -60.2293 -60.2228
   -60.2228 -60.2199 -60.2184 -60.2184 -60.2184 -60.2184 -60.2156 -60.2156
   -34.5380 -34.5380 -34.5316 -34.4943 -34.4943 -34.4845 -34.4845 -34.4643
   -34.4643 -34.4403 -34.4070 -34.4070 -34.3785 -34.3683 -34.3683 -34.3599
   -34.3511 -34.3511 -34.3366 -34.3366 -34.3365 -34.3365 -34.3307 -34.3230
   -34.3230 -34.3177 -34.3177 -34.3118 -34.3088 -34.3088 -34.3088 -34.3088
   -34.3030 -34.3030 -34.2998 -34.2998 -34.2957 -34.2777 -34.2777 -34.2656
   -34.2441 -34.2426 -34.2426 -34.2240 -34.2240 -34.2106 -34.2009 -34.1889
   -13.3520 -12.9452 -12.7409 -12.7409 -12.3793 -12.3792 -12.2252 -12.0816
   -11.9157 -11.8658 -11.8658 -11.8324 -11.8324 -11.6864 -11.6864 -11.6738
   -11.6267 -11.5970 -11.5970 -11.5787 -11.5787 -11.4713 -11.4713 -11.4185
   -11.4185 -11.4145 -11.3741 -11.3741 -11.3598 -11.3598 -11.2751 -11.2751
    -4.9985  -4.9985  -4.9863  -4.8603  -4.5609  -4.5609  -4.5303  -4.5303
    -4.4821  -4.4606  -4.4485  -4.4485  -4.3425  -4.3425  -4.3327  -4.3327
    -4.3279  -4.3279  -4.2174  -4.2174  -4.1212  -4.1211  -3.9948  -3.8103
    -3.8103  -3.3790  -3.3613  -3.3613  -3.3490  -3.2331  -3.2056  -3.2056
    -3.1442  -3.1442  -3.1108  -3.1108  -3.0888  -3.0888  -3.0501  -3.0501
    -3.0321  -3.0321  -2.8321  -2.6366  -2.6366  -2.6265  -2.6265  -2.5414
    -2.5414  -2.5290  -2.5290  -2.5111  -2.5111  -2.4623  -2.3983  -2.3983
    -2.3855  -2.1771  -2.1771  -2.1314  -2.1162  -1.9065  -1.8868  -1.8868
    -1.8739  -1.8739  -1.7216  -1.7216  -1.5045  -1.4904  -1.4707  -1.3323
    -1.3323  -1.2387  -1.2387  -1.1728  -1.1728  -1.1608  -1.0805  -1.0805
    -1.0163  -1.0163  -0.9742  -0.8960  -0.8224  -0.7261  -0.7261  -0.6961
    -0.6961  -0.6545  -0.6545  -0.5910  -0.4535  -0.4192  -0.4192  -0.4110
    -0.2895  -0.1826  -0.1826  -0.0853  -0.0651  -0.0651   0.0930   0.0930
     0.1211   0.1211   0.1392   0.1392   0.2944   0.3764   0.3764   0.6398
     2.5836   2.5836   2.7267   2.7267   2.7715   2.7715   2.7819   2.7819
     2.8294   2.8294   2.8417   2.8615   2.8736   2.8736   2.8937   2.9365
     3.0253   3.0253   3.0897   3.0897   3.1948   3.1948   3.1984   3.2455
     3.2654   3.2654   3.2829   3.2974   3.3715   3.3715   3.4188   3.4188
     3.4635   3.5023   3.5702   3.5988   3.5988   3.6590   3.6590   3.8036
     3.8036   3.8287   3.8287   3.9016   3.9016   3.9197   4.0727   4.3614
     4.3614   4.4289   4.5226   4.5226

          k = 0.2750 0.1588 0.0000 (126308 PWs)   bands (ev):

   -60.2529 -60.2441 -60.2395 -60.2395 -60.2319 -60.2319 -60.2290 -60.2231
   -60.2231 -60.2201 -60.2184 -60.2184 -60.2184 -60.2184 -60.2155 -60.2155
   -34.5372 -34.5372 -34.5302 -34.4955 -34.4955 -34.4845 -34.4845 -34.4632
   -34.4632 -34.4435 -34.4088 -34.4088 -34.3782 -34.3694 -34.3694 -34.3605
   -34.3512 -34.3512 -34.3360 -34.3360 -34.3355 -34.3355 -34.3300 -34.3218
   -34.3218 -34.3181 -34.3181 -34.3121 -34.3088 -34.3088 -34.3088 -34.3088
   -34.3029 -34.3029 -34.2980 -34.2980 -34.2924 -34.2785 -34.2785 -34.2653
   -34.2449 -34.2437 -34.2437 -34.2240 -34.2240 -34.2099 -34.2024 -34.1893
   -13.3459 -12.9599 -12.7452 -12.7452 -12.3670 -12.3670 -12.2075 -12.0791
   -11.9217 -11.8795 -11.8795 -11.8341 -11.8341 -11.6832 -11.6814 -11.6814
   -11.6197 -11.5966 -11.5966 -11.5791 -11.5791 -11.4772 -11.4772 -11.4180
   -11.4127 -11.4127 -11.3738 -11.3738 -11.3601 -11.3601 -11.2725 -11.2725
    -4.9904  -4.9904  -4.9770  -4.8534  -4.5720  -4.5720  -4.5395  -4.5395
    -4.4957  -4.4720  -4.4471  -4.4471  -4.3448  -4.3448  -4.3284  -4.3284
    -4.3271  -4.3271  -4.2155  -4.2155  -4.1234  -4.1234  -3.9851  -3.7886
    -3.7886  -3.4004  -3.3579  -3.3579  -3.3449  -3.2339  -3.2050  -3.2050
    -3.1565  -3.1565  -3.1207  -3.1207  -3.1003  -3.1002  -3.0457  -3.0457
    -3.0383  -3.0383  -2.8122  -2.6257  -2.6257  -2.6245  -2.6245  -2.5403
    -2.5403  -2.5338  -2.5338  -2.5111  -2.5111  -2.4575  -2.3911  -2.3911
    -2.3609  -2.1975  -2.1975  -2.1437  -2.1296  -1.9001  -1.8957  -1.8957
    -1.8449  -1.8449  -1.6963  -1.6963  -1.5051  -1.4937  -1.4883  -1.3390
    -1.3390  -1.2494  -1.2494  -1.1702  -1.1702  -1.1571  -1.0843  -1.0843
    -1.0205  -1.0205  -0.9838  -0.9062  -0.8076  -0.7231  -0.7231  -0.7175
    -0.7175  -0.6513  -0.6513  -0.5776  -0.4471  -0.4170  -0.4063  -0.4063
    -0.2939  -0.1849  -0.1849  -0.0946  -0.0717  -0.0717   0.0982   0.0982
     0.1251   0.1251   0.1404   0.1404   0.3098   0.3873   0.3873   0.6363
     2.5727   2.5727   2.7200   2.7200   2.7691   2.7691   2.7738   2.7738
     2.8314   2.8314   2.8404   2.8577   2.8743   2.8743   2.9026   2.9445
     3.0304   3.0304   3.0928   3.0928   3.1902   3.1902   3.2093   3.2371
     3.2525   3.2525   3.2749   3.2902   3.3716   3.3716   3.4172   3.4172
     3.4481   3.5128   3.5634   3.5985   3.5985   3.6549   3.6549   3.8051
     3.8051   3.8442   3.8442   3.9158   3.9158   3.9379   4.0559   4.3625
     4.3625   4.4217   4.5181   4.5181

          k = 0.2875 0.1660 0.0000 (126308 PWs)   bands (ev):

   -60.2528 -60.2444 -60.2396 -60.2396 -60.2317 -60.2317 -60.2286 -60.2233
   -60.2233 -60.2202 -60.2184 -60.2184 -60.2184 -60.2184 -60.2154 -60.2154
   -34.5364 -34.5364 -34.5287 -34.4967 -34.4967 -34.4845 -34.4845 -34.4621
   -34.4621 -34.4466 -34.4106 -34.4106 -34.3779 -34.3704 -34.3704 -34.3611
   -34.3514 -34.3514 -34.3355 -34.3355 -34.3344 -34.3344 -34.3294 -34.3206
   -34.3206 -34.3186 -34.3186 -34.3124 -34.3088 -34.3088 -34.3088 -34.3088
   -34.3027 -34.3027 -34.2962 -34.2962 -34.2892 -34.2794 -34.2794 -34.2649
   -34.2456 -34.2448 -34.2448 -34.2241 -34.2241 -34.2091 -34.2040 -34.1896
   -13.3395 -12.9745 -12.7492 -12.7492 -12.3547 -12.3547 -12.1898 -12.0765
   -11.9276 -11.8933 -11.8933 -11.8357 -11.8357 -11.6929 -11.6764 -11.6764
   -11.6128 -11.5962 -11.5962 -11.5795 -11.5795 -11.4831 -11.4831 -11.4216
   -11.4072 -11.4072 -11.3735 -11.3735 -11.3604 -11.3604 -11.2700 -11.2700
    -4.9819  -4.9819  -4.9674  -4.8462  -4.5834  -4.5834  -4.5482  -4.5482
    -4.5095  -4.4835  -4.4454  -4.4454  -4.3473  -4.3473  -4.3289  -4.3289
    -4.3215  -4.3215  -4.2135  -4.2135  -4.1257  -4.1257  -3.9750  -3.7669
    -3.7669  -3.4215  -3.3543  -3.3543  -3.3408  -3.2347  -3.2041  -3.2041
    -3.1689  -3.1689  -3.1305  -3.1305  -3.1116  -3.1116  -3.0446  -3.0446
    -3.0415  -3.0415  -2.7920  -2.6243  -2.6243  -2.6126  -2.6125  -2.5391
    -2.5391  -2.5381  -2.5381  -2.5113  -2.5112  -2.4524  -2.3842  -2.3841
    -2.3364  -2.2179  -2.2179  -2.1558  -2.1434  -1.9048  -1.9048  -1.8935
    -1.8155  -1.8155  -1.6711  -1.6711  -1.5197  -1.5168  -1.4720  -1.3454
    -1.3454  -1.2599  -1.2599  -1.1676  -1.1676  -1.1533  -1.0889  -1.0889
    -1.0248  -1.0248  -0.9937  -0.9162  -0.7929  -0.7507  -0.7507  -0.7092
    -0.7092  -0.6482  -0.6482  -0.5646  -0.4410  -0.4234  -0.3937  -0.3937
    -0.2976  -0.1869  -0.1869  -0.1041  -0.0781  -0.0781   0.1031   0.1031
     0.1289   0.1289   0.1416   0.1416   0.3248   0.3979   0.3979   0.6327
     2.5620   2.5620   2.7135   2.7135   2.7657   2.7657   2.7668   2.7668
     2.8335   2.8335   2.8390   2.8541   2.8748   2.8748   2.9120   2.9527
     3.0356   3.0356   3.0958   3.0958   3.1860   3.1860   3.2202   3.2294
     3.2399   3.2399   3.2668   3.2831   3.3718   3.3718   3.4156   3.4156
     3.4323   3.5237   3.5563   3.5982   3.5982   3.6509   3.6509   3.8065
     3.8066   3.8591   3.8591   3.9306   3.9306   3.9561   4.0391   4.3637
     4.3637   4.4142   4.5120   4.5120

          k = 0.3000 0.1732 0.0000 (126318 PWs)   bands (ev):

   -60.2526 -60.2447 -60.2397 -60.2397 -60.2314 -60.2314 -60.2283 -60.2235
   -60.2235 -60.2204 -60.2184 -60.2184 -60.2184 -60.2184 -60.2153 -60.2153
   -34.5356 -34.5356 -34.5271 -34.4979 -34.4979 -34.4845 -34.4845 -34.4610
   -34.4610 -34.4498 -34.4124 -34.4124 -34.3776 -34.3714 -34.3714 -34.3618
   -34.3516 -34.3516 -34.3350 -34.3350 -34.3334 -34.3334 -34.3287 -34.3193
   -34.3193 -34.3191 -34.3191 -34.3128 -34.3088 -34.3088 -34.3088 -34.3088
   -34.3025 -34.3025 -34.2944 -34.2944 -34.2860 -34.2803 -34.2803 -34.2645
   -34.2464 -34.2459 -34.2459 -34.2241 -34.2241 -34.2084 -34.2056 -34.1900
   -13.3329 -12.9889 -12.7531 -12.7531 -12.3422 -12.3422 -12.1723 -12.0738
   -11.9335 -11.9071 -11.9071 -11.8372 -11.8372 -11.7030 -11.6713 -11.6713
   -11.6059 -11.5957 -11.5957 -11.5799 -11.5799 -11.4890 -11.4890 -11.4254
   -11.4019 -11.4019 -11.3731 -11.3731 -11.3607 -11.3607 -11.2676 -11.2676
    -4.9731  -4.9731  -4.9574  -4.8387  -4.5950  -4.5950  -4.5564  -4.5564
    -4.5235  -4.4952  -4.4437  -4.4437  -4.3498  -4.3498  -4.3295  -4.3295
    -4.3160  -4.3160  -4.2114  -4.2114  -4.1281  -4.1281  -3.9645  -3.7452
    -3.7452  -3.4424  -3.3506  -3.3506  -3.3365  -3.2356  -3.2029  -3.2029
    -3.1816  -3.1816  -3.1401  -3.1401  -3.1228  -3.1228  -3.0509  -3.0509
    -3.0375  -3.0375  -2.7716  -2.6224  -2.6224  -2.6008  -2.6008  -2.5419
    -2.5419  -2.5379  -2.5379  -2.5114  -2.5114  -2.4471  -2.3774  -2.3774
    -2.3118  -2.2381  -2.2381  -2.1677  -2.1578  -1.9141  -1.9141  -1.8866
    -1.7856  -1.7856  -1.6461  -1.6461  -1.5400  -1.5341  -1.4558  -1.3516
    -1.3516  -1.2699  -1.2699  -1.1648  -1.1648  -1.1494  -1.0944  -1.0944
    -1.0292  -1.0292  -1.0039  -0.9261  -0.7787  -0.7787  -0.7784  -0.7013
    -0.7013  -0.6451  -0.6451  -0.5520  -0.4355  -0.4300  -0.3816  -0.3816
    -0.3006  -0.1883  -0.1883  -0.1137  -0.0844  -0.0844   0.1078   0.1078
     0.1324   0.1324   0.1429   0.1429   0.3396   0.4081   0.4081   0.6288
     2.5517   2.5517   2.7073   2.7073   2.7575   2.7575   2.7646   2.7646
     2.8355   2.8355   2.8377   2.8508   2.8753   2.8753   2.9219   2.9610
     3.0409   3.0409   3.0985   3.0985   3.1820   3.1820   3.2222   3.2278
     3.2278   3.2312   3.2584   3.2759   3.3720   3.3720   3.4139   3.4139
     3.4162   3.5351   3.5490   3.5979   3.5979   3.6469   3.6469   3.8079
     3.8079   3.8734   3.8734   3.9459   3.9459   3.9740   4.0223   4.3649
     4.3649   4.4063   4.5043   4.5043

          k = 0.3125 0.1804 0.0000 (126324 PWs)   bands (ev):

   -60.2524 -60.2450 -60.2397 -60.2397 -60.2312 -60.2312 -60.2280 -60.2238
   -60.2238 -60.2206 -60.2184 -60.2184 -60.2184 -60.2184 -60.2152 -60.2152
   -34.5347 -34.5347 -34.5256 -34.4992 -34.4992 -34.4845 -34.4845 -34.4598
   -34.4598 -34.4529 -34.4142 -34.4142 -34.3773 -34.3723 -34.3723 -34.3624
   -34.3517 -34.3517 -34.3346 -34.3346 -34.3324 -34.3324 -34.3281 -34.3196
   -34.3196 -34.3180 -34.3180 -34.3131 -34.3088 -34.3088 -34.3088 -34.3088
   -34.3024 -34.3024 -34.2926 -34.2926 -34.2828 -34.2812 -34.2812 -34.2642
   -34.2471 -34.2471 -34.2471 -34.2242 -34.2242 -34.2076 -34.2073 -34.1904
   -13.3260 -13.0031 -12.7567 -12.7567 -12.3297 -12.3297 -12.1548 -12.0710
   -11.9392 -11.9209 -11.9209 -11.8387 -11.8387 -11.7135 -11.6661 -11.6661
   -11.5990 -11.5953 -11.5953 -11.5804 -11.5804 -11.4949 -11.4949 -11.4294
   -11.3970 -11.3970 -11.3728 -11.3728 -11.3611 -11.3611 -11.2654 -11.2654
    -4.9640  -4.9640  -4.9471  -4.8309  -4.6069  -4.6069  -4.5642  -4.5642
    -4.5378  -4.5070  -4.4417  -4.4417  -4.3525  -4.3525  -4.3300  -4.3299
    -4.3107  -4.3107  -4.2093  -4.2092  -4.1305  -4.1305  -3.9536  -3.7236
    -3.7236  -3.4631  -3.3467  -3.3467  -3.3322  -3.2366  -3.2015  -3.2015
    -3.1944  -3.1944  -3.1495  -3.1495  -3.1338  -3.1338  -3.0573  -3.0573
    -3.0336  -3.0336  -2.7511  -2.6200  -2.6200  -2.5893  -2.5893  -2.5453
    -2.5453  -2.5367  -2.5367  -2.5116  -2.5116  -2.4416  -2.3709  -2.3709
    -2.2873  -2.2582  -2.2582  -2.1794  -2.1726  -1.9233  -1.9233  -1.8794
    -1.7553  -1.7553  -1.6214  -1.6214  -1.5633  -1.5484  -1.4397  -1.3574
    -1.3574  -1.2795  -1.2795  -1.1619  -1.1619  -1.1452  -1.1008  -1.1008
    -1.0337  -1.0337  -1.0145  -0.9358  -0.8073  -0.8073  -0.7641  -0.6938
    -0.6938  -0.6422  -0.6422  -0.5398  -0.4369  -0.4304  -0.3698  -0.3698
    -0.3029  -0.1894  -0.1894  -0.1234  -0.0904  -0.0904   0.1122   0.1122
     0.1356   0.1356   0.1441   0.1441   0.3540   0.4179   0.4179   0.6246
     2.5418   2.5418   2.7013   2.7013   2.7493   2.7493   2.7625   2.7625
     2.8364   2.8376   2.8376   2.8476   2.8757   2.8757   2.9323   2.9694
     3.0462   3.0462   3.1011   3.1011   3.1781   3.1782   3.2156   3.2162
     3.2162   3.2422   3.2499   3.2688   3.3723   3.3723   3.3997   3.4122
     3.4123   3.5415   3.5467   3.5975   3.5975   3.6431   3.6431   3.8092
     3.8092   3.8871   3.8871   3.9617   3.9617   3.9919   4.0054   4.3662
     4.3662   4.3980   4.4950   4.4951

          k = 0.3250 0.1876 0.0000 (126328 PWs)   bands (ev):

   -60.2523 -60.2454 -60.2398 -60.2398 -60.2310 -60.2310 -60.2277 -60.2240
   -60.2240 -60.2207 -60.2184 -60.2184 -60.2184 -60.2184 -60.2152 -60.2152
   -34.5338 -34.5338 -34.5239 -34.5004 -34.5004 -34.4845 -34.4845 -34.4586
   -34.4586 -34.4559 -34.4160 -34.4160 -34.3769 -34.3732 -34.3732 -34.3630
   -34.3519 -34.3519 -34.3341 -34.3341 -34.3315 -34.3315 -34.3275 -34.3201
   -34.3201 -34.3167 -34.3167 -34.3134 -34.3088 -34.3088 -34.3088 -34.3088
   -34.3022 -34.3022 -34.2908 -34.2908 -34.2821 -34.2821 -34.2796 -34.2638
   -34.2482 -34.2482 -34.2478 -34.2242 -34.2242 -34.2090 -34.2069 -34.1908
   -13.3188 -13.0171 -12.7600 -12.7600 -12.3170 -12.3170 -12.1374 -12.0680
   -11.9449 -11.9348 -11.9348 -11.8400 -11.8400 -11.7244 -11.6609 -11.6609
   -11.5949 -11.5949 -11.5922 -11.5808 -11.5808 -11.5009 -11.5009 -11.4335
   -11.3924 -11.3924 -11.3725 -11.3725 -11.3614 -11.3614 -11.2633 -11.2633
    -4.9545  -4.9545  -4.9364  -4.8229  -4.6190  -4.6190  -4.5714  -4.5714
    -4.5522  -4.5189  -4.4396  -4.4396  -4.3552  -4.3552  -4.3304  -4.3304
    -4.3055  -4.3055  -4.2070  -4.2070  -4.1330  -4.1330  -3.9422  -3.7021
    -3.7021  -3.4836  -3.3426  -3.3426  -3.3279  -3.2376  -3.2075  -3.2075
    -3.1997  -3.1997  -3.1588  -3.1588  -3.1445  -3.1445  -3.0637  -3.0637
    -3.0299  -3.0299  -2.7304  -2.6170  -2.6170  -2.5782  -2.5781  -2.5483
    -2.5483  -2.5355  -2.5355  -2.5118  -2.5118  -2.4359  -2.3646  -2.3646
    -2.2780  -2.2780  -2.2628  -2.1910  -2.1879  -1.9326  -1.9326  -1.8719
    -1.7246  -1.7246  -1.5969  -1.5969  -1.5867  -1.5625  -1.4236  -1.3629
    -1.3629  -1.2886  -1.2886  -1.1589  -1.1589  -1.1409  -1.1080  -1.1080
    -1.0383  -1.0383  -1.0254  -0.9454  -0.8363  -0.8362  -0.7499  -0.6866
    -0.6866  -0.6394  -0.6394  -0.5281  -0.4440  -0.4258  -0.3586  -0.3586
    -0.3045  -0.1901  -0.1901  -0.1332  -0.0964  -0.0964   0.1163   0.1163
     0.1386   0.1386   0.1453   0.1453   0.3682   0.4273   0.4273   0.6202
     2.5323   2.5323   2.6958   2.6958   2.7413   2.7413   2.7605   2.7605
     2.8351   2.8398   2.8398   2.8447   2.8759   2.8759   2.9432   2.9781
     3.0515   3.0515   3.1035   3.1035   3.1744   3.1744   3.2050   3.2050
     3.2096   3.2412   3.2531   3.2617   3.3727   3.3727   3.3830   3.4105
     3.4105   3.5337   3.5588   3.5971   3.5971   3.6393   3.6393   3.8103
     3.8103   3.9000   3.9000   3.9779   3.9779   3.9885   4.0095   4.3674
     4.3674   4.3894   4.4842   4.4842

          k = 0.3375 0.1949 0.0000 (126320 PWs)   bands (ev):

   -60.2521 -60.2457 -60.2399 -60.2399 -60.2307 -60.2307 -60.2274 -60.2243
   -60.2243 -60.2209 -60.2184 -60.2184 -60.2184 -60.2184 -60.2151 -60.2151
   -34.5329 -34.5329 -34.5222 -34.5017 -34.5017 -34.4845 -34.4845 -34.4590
   -34.4574 -34.4574 -34.4178 -34.4178 -34.3766 -34.3740 -34.3740 -34.3637
   -34.3520 -34.3520 -34.3336 -34.3336 -34.3306 -34.3306 -34.3269 -34.3206
   -34.3206 -34.3154 -34.3154 -34.3138 -34.3088 -34.3088 -34.3088 -34.3088
   -34.3021 -34.3021 -34.2890 -34.2890 -34.2831 -34.2831 -34.2765 -34.2634
   -34.2494 -34.2494 -34.2485 -34.2243 -34.2243 -34.2108 -34.2062 -34.1912
   -13.3113 -13.0309 -12.7632 -12.7632 -12.3042 -12.3042 -12.1201 -12.0650
   -11.9506 -11.9488 -11.9488 -11.8412 -11.8412 -11.7356 -11.6556 -11.6556
   -11.5944 -11.5944 -11.5855 -11.5813 -11.5813 -11.5068 -11.5068 -11.4377
   -11.3881 -11.3881 -11.3721 -11.3721 -11.3618 -11.3618 -11.2614 -11.2614
    -4.9448  -4.9448  -4.9254  -4.8146  -4.6312  -4.6312  -4.5782  -4.5782
    -4.5667  -4.5309  -4.4374  -4.4374  -4.3581  -4.3581  -4.3309  -4.3309
    -4.3005  -4.3005  -4.2048  -4.2048  -4.1356  -4.1356  -3.9305  -3.6806
    -3.6806  -3.5039  -3.3384  -3.3384  -3.3235  -3.2388  -3.2207  -3.2207
    -3.1977  -3.1977  -3.1678  -3.1678  -3.1547  -3.1547  -3.0701  -3.0701
    -3.0265  -3.0265  -2.7097  -2.6135  -2.6135  -2.5673  -2.5673  -2.5509
    -2.5509  -2.5343  -2.5343  -2.5121  -2.5121  -2.4299  -2.3586  -2.3586
    -2.2976  -2.2976  -2.2383  -2.2036  -2.2024  -1.9417  -1.9417  -1.8641
    -1.6936  -1.6936  -1.6102  -1.5764  -1.5727  -1.5727  -1.4075  -1.3681
    -1.3681  -1.2973  -1.2973  -1.1557  -1.1557  -1.1363  -1.1161  -1.1161
    -1.0429  -1.0429  -1.0366  -0.9548  -0.8657  -0.8657  -0.7359  -0.6798
    -0.6798  -0.6367  -0.6367  -0.5169  -0.4515  -0.4218  -0.3480  -0.3480
    -0.3054  -0.1903  -0.1903  -0.1431  -0.1021  -0.1021   0.1202   0.1202
     0.1413   0.1413   0.1465   0.1465   0.3820   0.4362   0.4362   0.6156
     2.5232   2.5232   2.6906   2.6906   2.7334   2.7334   2.7587   2.7587
     2.8338   2.8419   2.8419   2.8420   2.8761   2.8761   2.9546   2.9868
     3.0568   3.0568   3.1057   3.1057   3.1708   3.1708   3.1945   3.1945
     3.2042   3.2323   3.2548   3.2642   3.3661   3.3732   3.3732   3.4088
     3.4088   3.5257   3.5712   3.5968   3.5968   3.6357   3.6357   3.8114
     3.8114   3.9122   3.9122   3.9716   3.9946   3.9946   4.0269   4.3687
     4.3687   4.3804   4.4720   4.4720

          k = 0.3500 0.2021 0.0000 (126340 PWs)   bands (ev):

   -60.2519 -60.2460 -60.2399 -60.2399 -60.2305 -60.2305 -60.2271 -60.2245
   -60.2245 -60.2211 -60.2184 -60.2184 -60.2184 -60.2184 -60.2150 -60.2150
   -34.5319 -34.5319 -34.5204 -34.5030 -34.5030 -34.4845 -34.4845 -34.4620
   -34.4562 -34.4562 -34.4195 -34.4195 -34.3762 -34.3747 -34.3747 -34.3643
   -34.3521 -34.3521 -34.3331 -34.3331 -34.3298 -34.3298 -34.3262 -34.3211
   -34.3211 -34.3142 -34.3141 -34.3141 -34.3088 -34.3088 -34.3088 -34.3088
   -34.3020 -34.3020 -34.2873 -34.2873 -34.2841 -34.2841 -34.2734 -34.2630
   -34.2507 -34.2507 -34.2492 -34.2243 -34.2243 -34.2127 -34.2055 -34.1916
   -13.3036 -13.0445 -12.7661 -12.7661 -12.2913 -12.2913 -12.1029 -12.0619
   -11.9627 -11.9627 -11.9561 -11.8424 -11.8424 -11.7471 -11.6503 -11.6503
   -11.5940 -11.5940 -11.5818 -11.5817 -11.5787 -11.5127 -11.5127 -11.4420
   -11.3841 -11.3841 -11.3717 -11.3717 -11.3622 -11.3621 -11.2596 -11.2595
    -4.9348  -4.9348  -4.9141  -4.8060  -4.6437  -4.6437  -4.5845  -4.5845
    -4.5814  -4.5429  -4.4351  -4.4351  -4.3610  -4.3610  -4.3313  -4.3313
    -4.2957  -4.2957  -4.2024  -4.2024  -4.1381  -4.1381  -3.9184  -3.6594
    -3.6594  -3.5240  -3.3340  -3.3340  -3.3190  -3.2401  -3.2343  -3.2343
    -3.1953  -3.1953  -3.1767  -3.1767  -3.1646  -3.1646  -3.0765  -3.0765
    -3.0232  -3.0232  -2.6888  -2.6094  -2.6094  -2.5568  -2.5568  -2.5533
    -2.5533  -2.5331  -2.5331  -2.5124  -2.5124  -2.4238  -2.3530  -2.3530
    -2.3169  -2.3169  -2.2198  -2.2138  -2.2136  -1.9507  -1.9507  -1.8561
    -1.6623  -1.6623  -1.6338  -1.5902  -1.5488  -1.5488  -1.3915  -1.3729
    -1.3729  -1.3054  -1.3054  -1.1525  -1.1525  -1.1316  -1.1251  -1.1251
    -1.0482  -1.0476  -1.0476  -0.9640  -0.8955  -0.8955  -0.7221  -0.6734
    -0.6734  -0.6343  -0.6343  -0.5061  -0.4592  -0.4182  -0.3379  -0.3379
    -0.3056  -0.1901  -0.1901  -0.1529  -0.1077  -0.1077   0.1238   0.1238
     0.1438   0.1438   0.1476   0.1477   0.3954   0.4447   0.4447   0.6107
     2.5146   2.5146   2.6858   2.6858   2.7258   2.7258   2.7570   2.7570
     2.8327   2.8396   2.8441   2.8441   2.8761   2.8761   2.9665   2.9957
     3.0620   3.0620   3.1077   3.1077   3.1673   3.1673   3.1845   3.1845
     3.1995   3.2234   3.2480   3.2752   3.3490   3.3738   3.3738   3.4071
     3.4071   3.5174   3.5839   3.5965   3.5965   3.6322   3.6322   3.8124
     3.8124   3.9237   3.9237   3.9548   4.0117   4.0117   4.0441   4.3699
     4.3699   4.3710   4.4584   4.4584

          k = 0.3625 0.2093 0.0000 (126354 PWs)   bands (ev):

   -60.2517 -60.2463 -60.2400 -60.2400 -60.2302 -60.2302 -60.2268 -60.2248
   -60.2247 -60.2213 -60.2184 -60.2184 -60.2184 -60.2184 -60.2150 -60.2150
   -34.5309 -34.5309 -34.5186 -34.5043 -34.5043 -34.4845 -34.4845 -34.4649
   -34.4549 -34.4549 -34.4213 -34.4213 -34.3759 -34.3754 -34.3754 -34.3649
   -34.3522 -34.3522 -34.3326 -34.3326 -34.3291 -34.3291 -34.3256 -34.3215
   -34.3215 -34.3146 -34.3127 -34.3127 -34.3088 -34.3088 -34.3088 -34.3088
   -34.3019 -34.3019 -34.2855 -34.2855 -34.2852 -34.2851 -34.2704 -34.2625
   -34.2519 -34.2519 -34.2499 -34.2244 -34.2244 -34.2146 -34.2048 -34.1920
   -13.2957 -13.0579 -12.7688 -12.7688 -12.2783 -12.2783 -12.0859 -12.0586
   -11.9767 -11.9767 -11.9616 -11.8435 -11.8435 -11.7589 -11.6449 -11.6449
   -11.5935 -11.5935 -11.5822 -11.5822 -11.5721 -11.5187 -11.5187 -11.4465
   -11.3804 -11.3804 -11.3714 -11.3714 -11.3625 -11.3625 -11.2579 -11.2579
    -4.9246  -4.9245  -4.9025  -4.7971  -4.6562  -4.6562  -4.5962  -4.5903
    -4.5903  -4.5550  -4.4326  -4.4326  -4.3640  -4.3640  -4.3317  -4.3317
    -4.2911  -4.2911  -4.2001  -4.2001  -4.1408  -4.1408  -3.9059  -3.6382
    -3.6382  -3.5438  -3.3295  -3.3295  -3.3146  -3.2481  -3.2481  -3.2416
    -3.1927  -3.1927  -3.1854  -3.1854  -3.1739  -3.1739  -3.0829  -3.0829
    -3.0202  -3.0202  -2.6679  -2.6046  -2.6046  -2.5553  -2.5553  -2.5468
    -2.5468  -2.5319  -2.5319  -2.5127  -2.5127  -2.4174  -2.3477  -2.3477
    -2.3358  -2.3358  -2.2364  -2.2246  -2.1893  -1.9594  -1.9594  -1.8478
    -1.6574  -1.6307  -1.6307  -1.6037  -1.5252  -1.5252  -1.3774  -1.3774
    -1.3755  -1.3130  -1.3130  -1.1491  -1.1491  -1.1349  -1.1349  -1.1268
    -1.0600  -1.0523  -1.0523  -0.9731  -0.9256  -0.9256  -0.7085  -0.6674
    -0.6674  -0.6320  -0.6320  -0.4959  -0.4672  -0.4152  -0.3284  -0.3284
    -0.3052  -0.1896  -0.1896  -0.1628  -0.1132  -0.1132   0.1272   0.1272
     0.1460   0.1460   0.1488   0.1488   0.4085   0.4525   0.4525   0.6055
     2.5066   2.5066   2.6814   2.6814   2.7185   2.7185   2.7554   2.7554
     2.8315   2.8373   2.8462   2.8462   2.8761   2.8761   2.9789   3.0047
     3.0673   3.0673   3.1095   3.1095   3.1638   3.1638   3.1752   3.1752
     3.1953   3.2142   3.2413   3.2862   3.3318   3.3744   3.3744   3.4053
     3.4053   3.5090   3.5963   3.5963   3.5969   3.6288   3.6288   3.8133
     3.8133   3.9343   3.9343   3.9379   4.0292   4.0292   4.0612   4.3613
     4.3711   4.3711   4.4436   4.4436

          k = 0.3750 0.2165 0.0000 (126320 PWs)   bands (ev):

   -60.2515 -60.2466 -60.2400 -60.2400 -60.2300 -60.2300 -60.2265 -60.2250
   -60.2250 -60.2215 -60.2184 -60.2184 -60.2184 -60.2184 -60.2149 -60.2149
   -34.5299 -34.5299 -34.5167 -34.5056 -34.5056 -34.4845 -34.4845 -34.4678
   -34.4536 -34.4536 -34.4230 -34.4230 -34.3761 -34.3761 -34.3755 -34.3655
   -34.3523 -34.3523 -34.3321 -34.3321 -34.3284 -34.3284 -34.3250 -34.3220
   -34.3220 -34.3149 -34.3114 -34.3114 -34.3088 -34.3088 -34.3088 -34.3088
   -34.3018 -34.3018 -34.2862 -34.2862 -34.2838 -34.2838 -34.2674 -34.2621
   -34.2532 -34.2532 -34.2506 -34.2244 -34.2244 -34.2166 -34.2041 -34.1925
   -13.2874 -13.0711 -12.7712 -12.7712 -12.2652 -12.2652 -12.0689 -12.0552
   -11.9907 -11.9907 -11.9670 -11.8444 -11.8444 -11.7711 -11.6395 -11.6395
   -11.5930 -11.5930 -11.5827 -11.5827 -11.5655 -11.5246 -11.5246 -11.4511
   -11.3770 -11.3770 -11.3710 -11.3710 -11.3629 -11.3629 -11.2564 -11.2564
    -4.9140  -4.9140  -4.8906  -4.7881  -4.6689  -4.6689  -4.6110  -4.5956
    -4.5956  -4.5671  -4.4300  -4.4300  -4.3670  -4.3670  -4.3321  -4.3321
    -4.2869  -4.2868  -4.1976  -4.1976  -4.1434  -4.1434  -3.8929  -3.6173
    -3.6173  -3.5633  -3.3248  -3.3248  -3.3102  -3.2623  -3.2623  -3.2432
    -3.1939  -3.1939  -3.1899  -3.1899  -3.1826  -3.1826  -3.0893  -3.0893
    -3.0174  -3.0174  -2.6470  -2.5993  -2.5993  -2.5571  -2.5571  -2.5373
    -2.5373  -2.5307  -2.5307  -2.5131  -2.5131  -2.4108  -2.3543  -2.3543
    -2.3427  -2.3427  -2.2533  -2.2354  -2.1648  -1.9677  -1.9677  -1.8393
    -1.6811  -1.6171  -1.5989  -1.5989  -1.5020  -1.5019  -1.3816  -1.3816
    -1.3597  -1.3201  -1.3201  -1.1455  -1.1455  -1.1455  -1.1455  -1.1217
    -1.0722  -1.0571  -1.0571  -0.9820  -0.9561  -0.9561  -0.6950  -0.6617
    -0.6617  -0.6301  -0.6301  -0.4862  -0.4755  -0.4127  -0.3197  -0.3197
    -0.3040  -0.1887  -0.1887  -0.1725  -0.1185  -0.1185   0.1303   0.1303
     0.1479   0.1479   0.1498   0.1498   0.4213   0.4599   0.4599   0.6001
     2.4991   2.4991   2.6775   2.6775   2.7115   2.7115   2.7539   2.7539
     2.8305   2.8353   2.8483   2.8483   2.8758   2.8758   2.9918   3.0138
     3.0725   3.0725   3.1112   3.1112   3.1602   3.1602   3.1666   3.1666
     3.1918   3.2050   3.2349   3.2971   3.3144   3.3751   3.3751   3.4035
     3.4035   3.5003   3.5962   3.5962   3.6102   3.6256   3.6256   3.8142
     3.8142   3.9211   3.9442   3.9442   4.0471   4.0471   4.0779   4.3512
     4.3722   4.3722   4.4278   4.4278

          k = 0.3875 0.2237 0.0000 (126350 PWs)   bands (ev):

   -60.2513 -60.2469 -60.2401 -60.2401 -60.2297 -60.2297 -60.2262 -60.2252
   -60.2252 -60.2217 -60.2184 -60.2184 -60.2184 -60.2184 -60.2149 -60.2149
   -34.5288 -34.5288 -34.5147 -34.5069 -34.5069 -34.4845 -34.4845 -34.4707
   -34.4523 -34.4523 -34.4247 -34.4247 -34.3767 -34.3767 -34.3751 -34.3661
   -34.3524 -34.3524 -34.3316 -34.3316 -34.3277 -34.3277 -34.3244 -34.3225
   -34.3225 -34.3153 -34.3101 -34.3101 -34.3088 -34.3088 -34.3088 -34.3088
   -34.3017 -34.3017 -34.2873 -34.2873 -34.2821 -34.2821 -34.2644 -34.2616
   -34.2545 -34.2545 -34.2513 -34.2245 -34.2245 -34.2187 -34.2034 -34.1930
   -13.2789 -13.0841 -12.7734 -12.7734 -12.2521 -12.2521 -12.0522 -12.0518
   -12.0047 -12.0047 -11.9722 -11.8453 -11.8453 -11.7836 -11.6341 -11.6341
   -11.5925 -11.5925 -11.5832 -11.5832 -11.5590 -11.5305 -11.5305 -11.4558
   -11.3739 -11.3739 -11.3706 -11.3706 -11.3633 -11.3633 -11.2550 -11.2550
    -4.9032  -4.9032  -4.8784  -4.7787  -4.6816  -4.6816  -4.6259  -4.6004
    -4.6004  -4.5792  -4.4273  -4.4273  -4.3701  -4.3701  -4.3324  -4.3324
    -4.2829  -4.2829  -4.1951  -4.1951  -4.1461  -4.1461  -3.8797  -3.5966
    -3.5966  -3.5826  -3.3199  -3.3199  -3.3058  -3.2767  -3.2767  -3.2450
    -3.2023  -3.2023  -3.1907  -3.1907  -3.1867  -3.1867  -3.0956  -3.0956
    -3.0149  -3.0148  -2.6261  -2.5933  -2.5933  -2.5586  -2.5586  -2.5295
    -2.5295  -2.5284  -2.5284  -2.5136  -2.5136  -2.4040  -2.3723  -2.3723
    -2.3381  -2.3381  -2.2706  -2.2461  -2.1403  -1.9757  -1.9757  -1.8305
    -1.7049  -1.6303  -1.5669  -1.5669  -1.4791  -1.4791  -1.3853  -1.3853
    -1.3439  -1.3266  -1.3266  -1.1570  -1.1570  -1.1419  -1.1419  -1.1165
    -1.0846  -1.0619  -1.0619  -0.9907  -0.9870  -0.9870  -0.6818  -0.6565
    -0.6565  -0.6283  -0.6283  -0.4840  -0.4770  -0.4108  -0.3116  -0.3116
    -0.3022  -0.1874  -0.1874  -0.1822  -0.1236  -0.1236   0.1330   0.1330
     0.1497   0.1497   0.1509   0.1509   0.4337   0.4666   0.4666   0.5944
     2.4922   2.4922   2.6740   2.6740   2.7049   2.7049   2.7526   2.7526
     2.8295   2.8334   2.8504   2.8504   2.8755   2.8755   3.0051   3.0230
     3.0777   3.0777   3.1127   3.1127   3.1567   3.1567   3.1587   3.1587
     3.1888   3.1957   3.2288   3.2970   3.3081   3.3759   3.3759   3.4017
     3.4017   3.4914   3.5962   3.5962   3.6225   3.6225   3.6239   3.8149
     3.8149   3.9044   3.9532   3.9532   4.0653   4.0653   4.0945   4.3408
     4.3733   4.3733   4.4112   4.4112

          k = 0.4000 0.2309 0.0000 (126344 PWs)   bands (ev):

   -60.2511 -60.2471 -60.2401 -60.2401 -60.2295 -60.2295 -60.2259 -60.2255
   -60.2255 -60.2219 -60.2184 -60.2184 -60.2184 -60.2184 -60.2148 -60.2148
   -34.5278 -34.5278 -34.5127 -34.5082 -34.5082 -34.4845 -34.4845 -34.4736
   -34.4510 -34.4510 -34.4264 -34.4264 -34.3772 -34.3772 -34.3747 -34.3666
   -34.3525 -34.3525 -34.3311 -34.3311 -34.3272 -34.3272 -34.3239 -34.3230
   -34.3230 -34.3158 -34.3088 -34.3088 -34.3088 -34.3088 -34.3087 -34.3087
   -34.3016 -34.3016 -34.2884 -34.2884 -34.2804 -34.2804 -34.2615 -34.2611
   -34.2559 -34.2559 -34.2519 -34.2245 -34.2245 -34.2208 -34.2028 -34.1934
   -13.2702 -13.0969 -12.7754 -12.7754 -12.2388 -12.2388 -12.0482 -12.0355
   -12.0187 -12.0187 -11.9775 -11.8461 -11.8461 -11.7964 -11.6286 -11.6286
   -11.5920 -11.5920 -11.5837 -11.5837 -11.5525 -11.5364 -11.5364 -11.4607
   -11.3712 -11.3712 -11.3702 -11.3702 -11.3637 -11.3637 -11.2537 -11.2537
    -4.8922  -4.8922  -4.8660  -4.7692  -4.6945  -4.6945  -4.6407  -4.6047
    -4.6047  -4.5913  -4.4245  -4.4245  -4.3733  -4.3733  -4.3327  -4.3327
    -4.2792  -4.2792  -4.1926  -4.1926  -4.1489  -4.1489  -3.8660  -3.6017
    -3.5761  -3.5761  -3.3149  -3.3149  -3.3014  -3.2914  -3.2914  -3.2470
    -3.2104  -3.2104  -3.1981  -3.1981  -3.1834  -3.1834  -3.1018  -3.1018
    -3.0125  -3.0125  -2.6051  -2.5867  -2.5867  -2.5600  -2.5600  -2.5283
    -2.5283  -2.5201  -2.5201  -2.5141  -2.5141  -2.3970  -2.3899  -2.3899
    -2.3340  -2.3340  -2.2883  -2.2566  -2.1159  -1.9831  -1.9831  -1.8214
    -1.7288  -1.6433  -1.5347  -1.5347  -1.4566  -1.4566  -1.3887  -1.3887
    -1.3324  -1.3324  -1.3282  -1.1693  -1.1693  -1.1381  -1.1381  -1.1110
    -1.0972  -1.0667  -1.0667  -1.0181  -1.0181  -0.9992  -0.6688  -0.6516
    -0.6516  -0.6269  -0.6269  -0.4928  -0.4684  -0.4095  -0.3044  -0.3044
    -0.2997  -0.1917  -0.1859  -0.1859  -0.1286  -0.1286   0.1355   0.1355
     0.1512   0.1512   0.1518   0.1518   0.4457   0.4727   0.4727   0.5883
     2.4859   2.4859   2.6711   2.6711   2.6987   2.6987   2.7514   2.7514
     2.8286   2.8318   2.8525   2.8525   2.8751   2.8751   3.0188   3.0323
     3.0829   3.0829   3.1140   3.1140   3.1515   3.1515   3.1530   3.1530
     3.1862   3.1865   3.2229   3.2795   3.3190   3.3768   3.3768   3.4000
     3.4000   3.4824   3.5963   3.5963   3.6196   3.6196   3.6378   3.8156
     3.8156   3.8877   3.9613   3.9613   4.0838   4.0838   4.1108   4.3300
     4.3743   4.3743   4.3937   4.3937

          k = 0.4125 0.2382 0.0000 (126320 PWs)   bands (ev):

   -60.2509 -60.2474 -60.2402 -60.2402 -60.2292 -60.2292 -60.2257 -60.2257
   -60.2256 -60.2221 -60.2184 -60.2184 -60.2184 -60.2184 -60.2148 -60.2148
   -34.5267 -34.5267 -34.5106 -34.5095 -34.5095 -34.4844 -34.4844 -34.4764
   -34.4496 -34.4496 -34.4281 -34.4281 -34.3777 -34.3777 -34.3742 -34.3672
   -34.3526 -34.3526 -34.3306 -34.3306 -34.3267 -34.3267 -34.3235 -34.3235
   -34.3233 -34.3162 -34.3088 -34.3088 -34.3088 -34.3088 -34.3074 -34.3074
   -34.3015 -34.3015 -34.2896 -34.2896 -34.2787 -34.2787 -34.2607 -34.2586
   -34.2572 -34.2572 -34.2526 -34.2246 -34.2246 -34.2229 -34.2021 -34.1939
   -13.2612 -13.1094 -12.7772 -12.7772 -12.2255 -12.2255 -12.0445 -12.0327
   -12.0327 -12.0190 -11.9826 -11.8468 -11.8468 -11.8095 -11.6230 -11.6230
   -11.5915 -11.5915 -11.5842 -11.5842 -11.5461 -11.5423 -11.5423 -11.4657
   -11.3698 -11.3698 -11.3687 -11.3687 -11.3641 -11.3641 -11.2526 -11.2526
    -4.8809  -4.8809  -4.8533  -4.7594  -4.7073  -4.7073  -4.6556  -4.6084
    -4.6084  -4.6033  -4.4216  -4.4216  -4.3765  -4.3765  -4.3330  -4.3330
    -4.2759  -4.2759  -4.1900  -4.1900  -4.1516  -4.1516  -3.8520  -3.6205
    -3.5558  -3.5558  -3.3097  -3.3097  -3.3065  -3.3065  -3.2971  -3.2492
    -3.2183  -3.2183  -3.2048  -3.2048  -3.1797  -3.1797  -3.1080  -3.1080
    -3.0105  -3.0105  -2.5842  -2.5795  -2.5795  -2.5611  -2.5611  -2.5272
    -2.5272  -2.5146  -2.5146  -2.5126  -2.5126  -2.4070  -2.4070  -2.3897
    -2.3303  -2.3303  -2.3063  -2.2668  -2.0915  -1.9899  -1.9899  -1.8121
    -1.7527  -1.6561  -1.5024  -1.5024  -1.4346  -1.4345  -1.3917  -1.3917
    -1.3377  -1.3377  -1.3126  -1.1823  -1.1823  -1.1343  -1.1343  -1.1102
    -1.1054  -1.0715  -1.0715  -1.0494  -1.0494  -1.0076  -0.6560  -0.6472
    -0.6472  -0.6257  -0.6257  -0.5019  -0.4603  -0.4087  -0.2978  -0.2978
    -0.2966  -0.2011  -0.1840  -0.1840  -0.1335  -0.1335   0.1378   0.1378
     0.1525   0.1525   0.1527   0.1527   0.4573   0.4781   0.4781   0.5820
     2.4803   2.4804   2.6687   2.6687   2.6929   2.6929   2.7504   2.7504
     2.8278   2.8303   2.8545   2.8545   2.8745   2.8745   3.0329   3.0417
     3.0879   3.0879   3.1152   3.1152   3.1451   3.1451   3.1494   3.1494
     3.1767   3.1848   3.2173   3.2620   3.3299   3.3778   3.3778   3.3982
     3.3982   3.4732   3.5965   3.5965   3.6169   3.6169   3.6519   3.8161
     3.8161   3.8711   3.9685   3.9685   4.1027   4.1027   4.1268   4.3188
     4.3751   4.3751   4.3757   4.3757

          k = 0.4250 0.2454 0.0000 (126350 PWs)   bands (ev):

   -60.2507 -60.2477 -60.2402 -60.2402 -60.2290 -60.2290 -60.2260 -60.2260
   -60.2253 -60.2223 -60.2184 -60.2184 -60.2184 -60.2184 -60.2148 -60.2148
   -34.5256 -34.5256 -34.5108 -34.5108 -34.5085 -34.4844 -34.4844 -34.4791
   -34.4482 -34.4482 -34.4298 -34.4298 -34.3781 -34.3781 -34.3738 -34.3678
   -34.3526 -34.3526 -34.3301 -34.3301 -34.3262 -34.3262 -34.3240 -34.3240
   -34.3227 -34.3166 -34.3088 -34.3088 -34.3088 -34.3088 -34.3060 -34.3060
   -34.3014 -34.3014 -34.2907 -34.2907 -34.2771 -34.2771 -34.2602 -34.2586
   -34.2586 -34.2557 -34.2532 -34.2251 -34.2246 -34.2246 -34.2014 -34.1944
   -13.2519 -13.1218 -12.7787 -12.7787 -12.2120 -12.2120 -12.0467 -12.0467
   -12.0407 -12.0027 -11.9876 -11.8474 -11.8474 -11.8229 -11.6175 -11.6175
   -11.5910 -11.5910 -11.5847 -11.5847 -11.5483 -11.5482 -11.5398 -11.4707
   -11.3694 -11.3694 -11.3666 -11.3666 -11.3645 -11.3645 -11.2517 -11.2517
    -4.8695  -4.8695  -4.8403  -4.7493  -4.7202  -4.7202  -4.6705  -4.6153
    -4.6117  -4.6117  -4.4187  -4.4187  -4.3798  -4.3798  -4.3332  -4.3332
    -4.2730  -4.2730  -4.1874  -4.1874  -4.1544  -4.1544  -3.8376  -3.6390
    -3.5358  -3.5358  -3.3220  -3.3220  -3.3043  -3.3043  -3.2929  -3.2516
    -3.2260  -3.2260  -3.2106  -3.2106  -3.1759  -3.1759  -3.1141  -3.1141
    -3.0087  -3.0087  -2.5716  -2.5716  -2.5634  -2.5620  -2.5620  -2.5260
    -2.5260  -2.5152  -2.5152  -2.5058  -2.5058  -2.4235  -2.4235  -2.3823
    -2.3270  -2.3270  -2.3247  -2.2769  -2.0671  -1.9961  -1.9961  -1.8025
    -1.7766  -1.6687  -1.4700  -1.4700  -1.4129  -1.4129  -1.3944  -1.3944
    -1.3423  -1.3423  -1.2971  -1.1961  -1.1961  -1.1303  -1.1303  -1.1234
    -1.0996  -1.0811  -1.0811  -1.0763  -1.0763  -1.0158  -0.6435  -0.6431
    -0.6431  -0.6249  -0.6249  -0.5113  -0.4528  -0.4085  -0.2929  -0.2922
    -0.2922  -0.2103  -0.1818  -0.1818  -0.1382  -0.1382   0.1397   0.1397
     0.1535   0.1535   0.1536   0.1536   0.4686   0.4829   0.4829   0.5753
     2.4754   2.4754   2.6667   2.6667   2.6876   2.6876   2.7495   2.7495
     2.8270   2.8291   2.8565   2.8565   2.8737   2.8737   3.0475   3.0512
     3.0929   3.0929   3.1162   3.1162   3.1395   3.1395   3.1456   3.1456
     3.1672   3.1837   3.2120   3.2445   3.3407   3.3788   3.3788   3.3965
     3.3965   3.4638   3.5969   3.5969   3.6143   3.6143   3.6664   3.8166
     3.8166   3.8545   3.9748   3.9748   4.1218   4.1218   4.1425   4.3073
     4.3572   4.3572   4.3759   4.3759

          k = 0.4375 0.2526 0.0000 (126322 PWs)   bands (ev):

   -60.2505 -60.2480 -60.2402 -60.2402 -60.2287 -60.2287 -60.2262 -60.2262
   -60.2251 -60.2225 -60.2184 -60.2184 -60.2184 -60.2184 -60.2147 -60.2147
   -34.5244 -34.5244 -34.5121 -34.5121 -34.5064 -34.4844 -34.4844 -34.4818
   -34.4468 -34.4468 -34.4314 -34.4314 -34.3784 -34.3784 -34.3733 -34.3683
   -34.3527 -34.3527 -34.3296 -34.3296 -34.3259 -34.3259 -34.3245 -34.3245
   -34.3222 -34.3171 -34.3088 -34.3088 -34.3088 -34.3088 -34.3047 -34.3047
   -34.3014 -34.3014 -34.2919 -34.2919 -34.2754 -34.2754 -34.2600 -34.2600
   -34.2596 -34.2539 -34.2529 -34.2274 -34.2247 -34.2247 -34.2008 -34.1950
   -13.2424 -13.1339 -12.7800 -12.7800 -12.1985 -12.1985 -12.0606 -12.0606
   -12.0368 -11.9926 -11.9866 -11.8479 -11.8479 -11.8366 -11.6119 -11.6119
   -11.5905 -11.5905 -11.5853 -11.5852 -11.5541 -11.5541 -11.5335 -11.4759
   -11.3690 -11.3690 -11.3649 -11.3649 -11.3648 -11.3648 -11.2509 -11.2509
    -4.8578  -4.8578  -4.8271  -4.7391  -4.7331  -4.7331  -4.6853  -4.6272
    -4.6145  -4.6145  -4.4156  -4.4156  -4.3830  -4.3830  -4.3334  -4.3334
    -4.2705  -4.2705  -4.1848  -4.1848  -4.1572  -4.1571  -3.8229  -3.6572
    -3.5161  -3.5161  -3.3378  -3.3378  -3.2988  -3.2988  -3.2887  -3.2541
    -3.2336  -3.2336  -3.2157  -3.2157  -3.1717  -3.1717  -3.1201  -3.1200
    -3.0072  -3.0072  -2.5630  -2.5629  -2.5628  -2.5628  -2.5426  -2.5249
    -2.5249  -2.5159  -2.5159  -2.5000  -2.5000  -2.4394  -2.4394  -2.3746
    -2.3434  -2.3242  -2.3242  -2.2868  -2.0427  -2.0015  -2.0015  -1.8006
    -1.7926  -1.6811  -1.4374  -1.4374  -1.3966  -1.3966  -1.3918  -1.3918
    -1.3462  -1.3462  -1.2818  -1.2107  -1.2107  -1.1368  -1.1262  -1.1262
    -1.1129  -1.1129  -1.0937  -1.0811  -1.0811  -1.0238  -0.6394  -0.6394
    -0.6311  -0.6244  -0.6244  -0.5209  -0.4458  -0.4089  -0.2887  -0.2873
    -0.2873  -0.2193  -0.1793  -0.1793  -0.1428  -0.1428   0.1413   0.1413
     0.1542   0.1542   0.1544   0.1544   0.4795   0.4870   0.4870   0.5684
     2.4712   2.4712   2.6654   2.6654   2.6828   2.6828   2.7487   2.7487
     2.8264   2.8280   2.8584   2.8584   2.8729   2.8729   3.0607   3.0624
     3.0979   3.0979   3.1170   3.1170   3.1347   3.1347   3.1418   3.1418
     3.1575   3.1831   3.2071   3.2271   3.3515   3.3799   3.3799   3.3947
     3.3947   3.4542   3.5974   3.5974   3.6118   3.6118   3.6810   3.8171
     3.8171   3.8380   3.9801   3.9801   4.1411   4.1411   4.1580   4.2954
     4.3382   4.3382   4.3766   4.3766

          k = 0.4500 0.2598 0.0000 (126320 PWs)   bands (ev):

   -60.2503 -60.2483 -60.2402 -60.2402 -60.2285 -60.2285 -60.2265 -60.2265
   -60.2248 -60.2228 -60.2184 -60.2184 -60.2184 -60.2184 -60.2147 -60.2147
   -34.5233 -34.5233 -34.5134 -34.5134 -34.5041 -34.4845 -34.4844 -34.4844
   -34.4454 -34.4454 -34.4331 -34.4331 -34.3787 -34.3787 -34.3729 -34.3689
   -34.3527 -34.3527 -34.3291 -34.3291 -34.3256 -34.3256 -34.3251 -34.3250
   -34.3216 -34.3175 -34.3088 -34.3088 -34.3088 -34.3088 -34.3034 -34.3033
   -34.3013 -34.3013 -34.2931 -34.2931 -34.2738 -34.2738 -34.2615 -34.2615
   -34.2591 -34.2545 -34.2502 -34.2297 -34.2247 -34.2247 -34.2002 -34.1955
   -13.2326 -13.1458 -12.7810 -12.7810 -12.1850 -12.1850 -12.0746 -12.0746
   -12.0329 -11.9974 -11.9706 -11.8505 -11.8483 -11.8483 -11.6062 -11.6062
   -11.5900 -11.5900 -11.5858 -11.5858 -11.5600 -11.5600 -11.5274 -11.4813
   -11.3686 -11.3686 -11.3653 -11.3653 -11.3634 -11.3634 -11.2502 -11.2502
    -4.8459  -4.8459  -4.8137  -4.7460  -4.7460  -4.7287  -4.7001  -4.6390
    -4.6168  -4.6168  -4.4125  -4.4125  -4.3863  -4.3863  -4.3336  -4.3336
    -4.2684  -4.2684  -4.1821  -4.1821  -4.1599  -4.1599  -3.8078  -3.6752
    -3.4967  -3.4967  -3.3540  -3.3540  -3.2931  -3.2931  -3.2846  -3.2568
    -3.2409  -3.2409  -3.2198  -3.2198  -3.1674  -3.1674  -3.1259  -3.1259
    -3.0059  -3.0059  -2.5634  -2.5634  -2.5537  -2.5537  -2.5238  -2.5238
    -2.5219  -2.5166  -2.5166  -2.4951  -2.4951  -2.4547  -2.4547  -2.3668
    -2.3623  -2.3219  -2.3219  -2.2965  -2.0184  -2.0060  -2.0060  -1.8247
    -1.7825  -1.6933  -1.4049  -1.4049  -1.3984  -1.3984  -1.3711  -1.3711
    -1.3494  -1.3494  -1.2665  -1.2259  -1.2259  -1.1504  -1.1449  -1.1449
    -1.1220  -1.1220  -1.0875  -1.0859  -1.0859  -1.0316  -0.6362  -0.6362
    -0.6242  -0.6242  -0.6190  -0.5308  -0.4395  -0.4099  -0.2838  -0.2833
    -0.2833  -0.2279  -0.1766  -0.1766  -0.1473  -0.1473   0.1426   0.1426
     0.1548   0.1548   0.1551   0.1551   0.4900   0.4903   0.4903   0.5610
     2.4678   2.4678   2.6646   2.6646   2.6786   2.6786   2.7480   2.7480
     2.8259   2.8271   2.8603   2.8603   2.8719   2.8719   3.0703   3.0777
     3.1027   3.1027   3.1177   3.1177   3.1308   3.1308   3.1379   3.1379
     3.1479   3.1832   3.2026   3.2097   3.3622   3.3811   3.3811   3.3930
     3.3930   3.4445   3.5980   3.5980   3.6096   3.6096   3.6959   3.8174
     3.8174   3.8217   3.9845   3.9845   4.1606   4.1606   4.1732   4.2832
     4.3189   4.3189   4.3771   4.3771

          k = 0.4625 0.2670 0.0000 (126302 PWs)   bands (ev):

   -60.2500 -60.2485 -60.2403 -60.2403 -60.2282 -60.2282 -60.2267 -60.2267
   -60.2245 -60.2230 -60.2184 -60.2184 -60.2184 -60.2184 -60.2147 -60.2147
   -34.5221 -34.5221 -34.5147 -34.5147 -34.5018 -34.4871 -34.4844 -34.4844
   -34.4439 -34.4439 -34.4347 -34.4347 -34.3789 -34.3789 -34.3724 -34.3694
   -34.3528 -34.3528 -34.3286 -34.3286 -34.3256 -34.3256 -34.3253 -34.3253
   -34.3211 -34.3180 -34.3088 -34.3088 -34.3088 -34.3088 -34.3020 -34.3020
   -34.3013 -34.3013 -34.2943 -34.2943 -34.2722 -34.2722 -34.2629 -34.2629
   -34.2586 -34.2551 -34.2474 -34.2321 -34.2247 -34.2247 -34.1995 -34.1960
   -13.2226 -13.1575 -12.7819 -12.7819 -12.1714 -12.1713 -12.0885 -12.0885
   -12.0288 -12.0022 -11.9548 -11.8647 -11.8487 -11.8487 -11.6005 -11.6005
   -11.5895 -11.5895 -11.5863 -11.5863 -11.5659 -11.5659 -11.5213 -11.4867
   -11.3682 -11.3682 -11.3657 -11.3657 -11.3622 -11.3622 -11.2497 -11.2497
    -4.8339  -4.8339  -4.8001  -4.7588  -4.7588  -4.7180  -4.7147  -4.6507
    -4.6186  -4.6186  -4.4093  -4.4093  -4.3897  -4.3897  -4.3337  -4.3337
    -4.2668  -4.2668  -4.1794  -4.1794  -4.1627  -4.1627  -3.7923  -3.6929
    -3.4776  -3.4776  -3.3705  -3.3705  -3.2872  -3.2872  -3.2807  -3.2597
    -3.2481  -3.2481  -3.2231  -3.2231  -3.1629  -3.1629  -3.1317  -3.1317
    -3.0050  -3.0050  -2.5639  -2.5639  -2.5437  -2.5437  -2.5228  -2.5228
    -2.5173  -2.5173  -2.5014  -2.4912  -2.4912  -2.4695  -2.4694  -2.3815
    -2.3587  -2.3201  -2.3201  -2.3060  -2.0096  -2.0096  -1.9940  -1.8487
    -1.7722  -1.7052  -1.3998  -1.3998  -1.3722  -1.3722  -1.3519  -1.3519
    -1.3509  -1.3509  -1.2515  -1.2419  -1.2419  -1.1771  -1.1771  -1.1643
    -1.1178  -1.1178  -1.0906  -1.0906  -1.0812  -1.0392  -0.6333  -0.6333
    -0.6244  -0.6244  -0.6071  -0.5409  -0.4337  -0.4115  -0.2801  -0.2801
    -0.2784  -0.2363  -0.1736  -0.1736  -0.1515  -0.1515   0.1437   0.1437
     0.1553   0.1553   0.1556   0.1556   0.4930   0.4930   0.5002   0.5534
     2.4651   2.4651   2.6643   2.6643   2.6748   2.6748   2.7475   2.7476
     2.8256   2.8264   2.8621   2.8621   2.8709   2.8709   3.0799   3.0933
     3.1075   3.1075   3.1182   3.1182   3.1277   3.1277   3.1338   3.1338
     3.1382   3.1838   3.1925   3.1985   3.3729   3.3824   3.3824   3.3914
     3.3914   3.4346   3.5989   3.5989   3.6075   3.6075   3.7110   3.8054
     3.8177   3.8177   3.9880   3.9880   4.1803   4.1803   4.1880   4.2706
     4.2994   4.2994   4.3776   4.3776

          k = 0.4750 0.2742 0.0000 (126318 PWs)   bands (ev):

   -60.2498 -60.2488 -60.2403 -60.2403 -60.2280 -60.2280 -60.2270 -60.2270
   -60.2243 -60.2232 -60.2184 -60.2184 -60.2184 -60.2184 -60.2147 -60.2147
   -34.5209 -34.5209 -34.5159 -34.5159 -34.4995 -34.4897 -34.4844 -34.4844
   -34.4424 -34.4424 -34.4363 -34.4363 -34.3791 -34.3791 -34.3719 -34.3699
   -34.3528 -34.3528 -34.3281 -34.3281 -34.3261 -34.3261 -34.3252 -34.3252
   -34.3205 -34.3185 -34.3088 -34.3088 -34.3088 -34.3088 -34.3013 -34.3013
   -34.3007 -34.3007 -34.2956 -34.2956 -34.2706 -34.2706 -34.2644 -34.2644
   -34.2580 -34.2557 -34.2448 -34.2345 -34.2247 -34.2247 -34.1989 -34.1966
   -13.2124 -13.1689 -12.7824 -12.7824 -12.1577 -12.1577 -12.1024 -12.1024
   -12.0246 -12.0069 -11.9393 -11.8791 -11.8489 -11.8489 -11.5948 -11.5948
   -11.5889 -11.5889 -11.5868 -11.5868 -11.5717 -11.5717 -11.5153 -11.4922
   -11.3678 -11.3678 -11.3661 -11.3661 -11.3614 -11.3614 -11.2493 -11.2493
    -4.8217  -4.8217  -4.7862  -4.7716  -4.7715  -4.7293  -4.7072  -4.6623
    -4.6199  -4.6199  -4.4061  -4.4061  -4.3930  -4.3930  -4.3338  -4.3338
    -4.2656  -4.2656  -4.1766  -4.1766  -4.1655  -4.1655  -3.7766  -3.7102
    -3.4588  -3.4588  -3.3874  -3.3874  -3.2811  -3.2811  -3.2768  -3.2628
    -3.2551  -3.2551  -3.2255  -3.2255  -3.1581  -3.1581  -3.1373  -3.1373
    -3.0043  -3.0043  -2.5643  -2.5643  -2.5330  -2.5330  -2.5218  -2.5218
    -2.5181  -2.5181  -2.4883  -2.4883  -2.4835  -2.4835  -2.4809  -2.4010
    -2.3504  -2.3188  -2.3188  -2.3153  -2.0122  -2.0122  -1.9697  -1.8729
    -1.7616  -1.7170  -1.4009  -1.4009  -1.3537  -1.3537  -1.3396  -1.3396
    -1.3313  -1.3313  -1.2585  -1.2585  -1.2365  -1.2094  -1.2094  -1.1784
    -1.1134  -1.1134  -1.0953  -1.0953  -1.0746  -1.0467  -0.6309  -0.6309
    -0.6249  -0.6249  -0.5955  -0.5513  -0.4285  -0.4137  -0.2779  -0.2779
    -0.2725  -0.2443  -0.1704  -0.1704  -0.1557  -0.1557   0.1444   0.1444
     0.1557   0.1557   0.1560   0.1560   0.4949   0.4949   0.5099   0.5454
     2.4631   2.4631   2.6646   2.6646   2.6716   2.6717   2.7472   2.7472
     2.8254   2.8259   2.8638   2.8638   2.8696   2.8696   3.0896   3.1092
     3.1121   3.1121   3.1186   3.1186   3.1255   3.1255   3.1285   3.1297
     3.1297   3.1754   3.1849   3.1948   3.3834   3.3838   3.3838   3.3898
     3.3898   3.4246   3.5999   3.5999   3.6056   3.6056   3.7263   3.7893
     3.8179   3.8179   3.9904   3.9904   4.2001   4.2001   4.2026   4.2577
     4.2796   4.2796   4.3779   4.3779

          k = 0.4875 0.2815 0.0000 (126296 PWs)   bands (ev):

   -60.2495 -60.2490 -60.2403 -60.2403 -60.2277 -60.2277 -60.2272 -60.2272
   -60.2240 -60.2235 -60.2184 -60.2184 -60.2184 -60.2184 -60.2147 -60.2147
   -34.5197 -34.5197 -34.5172 -34.5172 -34.4971 -34.4922 -34.4844 -34.4844
   -34.4409 -34.4409 -34.4378 -34.4378 -34.3792 -34.3792 -34.3715 -34.3705
   -34.3528 -34.3528 -34.3276 -34.3276 -34.3266 -34.3266 -34.3251 -34.3251
   -34.3200 -34.3190 -34.3088 -34.3088 -34.3088 -34.3088 -34.3013 -34.3013
   -34.2994 -34.2994 -34.2968 -34.2968 -34.2690 -34.2690 -34.2659 -34.2659
   -34.2575 -34.2563 -34.2421 -34.2370 -34.2248 -34.2248 -34.1983 -34.1972
   -13.2019 -13.1801 -12.7828 -12.7828 -12.1439 -12.1439 -12.1163 -12.1163
   -12.0203 -12.0114 -11.9239 -11.8938 -11.8490 -11.8490 -11.5891 -11.5891
   -11.5884 -11.5884 -11.5874 -11.5873 -11.5775 -11.5775 -11.5094 -11.4978
   -11.3674 -11.3674 -11.3665 -11.3665 -11.3609 -11.3609 -11.2491 -11.2491
    -4.8093  -4.8093  -4.7842  -4.7842  -4.7722  -4.7437  -4.6962  -4.6737
    -4.6206  -4.6206  -4.4029  -4.4029  -4.3963  -4.3963  -4.3339  -4.3339
    -4.2649  -4.2649  -4.1739  -4.1739  -4.1683  -4.1683  -3.7605  -3.7273
    -3.4405  -3.4405  -3.4047  -3.4047  -3.2749  -3.2749  -3.2731  -3.2661
    -3.2619  -3.2619  -3.2269  -3.2269  -3.1532  -3.1532  -3.1427  -3.1427
    -3.0038  -3.0038  -2.5645  -2.5645  -2.5217  -2.5217  -2.5208  -2.5208
    -2.5190  -2.5190  -2.4969  -2.4969  -2.4866  -2.4866  -2.4607  -2.4207
    -2.3419  -2.3244  -2.3180  -2.3180  -2.0138  -2.0138  -1.9455  -1.8970
    -1.7508  -1.7285  -1.4015  -1.4015  -1.3548  -1.3548  -1.3122  -1.3122
    -1.3069  -1.3069  -1.2758  -1.2758  -1.2418  -1.2418  -1.2217  -1.1926
    -1.1090  -1.1090  -1.0999  -1.0999  -1.0679  -1.0539  -0.6288  -0.6288
    -0.6259  -0.6259  -0.5841  -0.5620  -0.4239  -0.4165  -0.2765  -0.2765
    -0.2661  -0.2520  -0.1670  -0.1670  -0.1596  -0.1596   0.1449   0.1449
     0.1560   0.1560   0.1561   0.1561   0.4960   0.4960   0.5194   0.5371
     2.4620   2.4620   2.6655   2.6655   2.6690   2.6690   2.7470   2.7470
     2.8253   2.8255   2.8654   2.8654   2.8683   2.8683   3.0993   3.1167
     3.1167   3.1187   3.1188   3.1188   3.1242   3.1242   3.1254   3.1255
     3.1255   3.1585   3.1866   3.1916   3.3852   3.3852   3.3882   3.3882
     3.3939   3.4145   3.6010   3.6010   3.6039   3.6039   3.7418   3.7733
     3.8180   3.8180   3.9919   3.9919   4.2169   4.2200   4.2200   4.2444
     4.2598   4.2598   4.3781   4.3781

          k = 0.5000 0.2887 0.0000 (126288 PWs)   bands (ev):

   -60.2493 -60.2493 -60.2403 -60.2403 -60.2275 -60.2275 -60.2275 -60.2275
   -60.2237 -60.2237 -60.2184 -60.2184 -60.2184 -60.2184 -60.2147 -60.2147
   -34.5184 -34.5184 -34.5184 -34.5184 -34.4947 -34.4947 -34.4844 -34.4844
   -34.4394 -34.4394 -34.4394 -34.4394 -34.3792 -34.3792 -34.3710 -34.3710
   -34.3528 -34.3528 -34.3271 -34.3271 -34.3271 -34.3271 -34.3250 -34.3250
   -34.3195 -34.3195 -34.3088 -34.3088 -34.3088 -34.3088 -34.3013 -34.3013
   -34.2981 -34.2981 -34.2981 -34.2981 -34.2675 -34.2675 -34.2675 -34.2675
   -34.2569 -34.2569 -34.2395 -34.2395 -34.2248 -34.2248 -34.1977 -34.1977
   -13.1911 -13.1911 -12.7829 -12.7829 -12.1301 -12.1301 -12.1301 -12.1301
   -12.0159 -12.0159 -11.9087 -11.9087 -11.8491 -11.8491 -11.5879 -11.5879
   -11.5879 -11.5879 -11.5833 -11.5833 -11.5833 -11.5833 -11.5036 -11.5035
   -11.3670 -11.3670 -11.3669 -11.3669 -11.3608 -11.3608 -11.2490 -11.2490
    -4.7968  -4.7968  -4.7968  -4.7968  -4.7581  -4.7581  -4.6850  -4.6850
    -4.6209  -4.6209  -4.3996  -4.3996  -4.3996  -4.3996  -4.3339  -4.3339
    -4.2647  -4.2646  -4.1711  -4.1711  -4.1711  -4.1711  -3.7440  -3.7440
    -3.4224  -3.4224  -3.4224  -3.4224  -3.2695  -3.2695  -3.2685  -3.2685
    -3.2685  -3.2685  -3.2273  -3.2273  -3.1480  -3.1480  -3.1480  -3.1480
    -3.0037  -3.0037  -2.5645  -2.5645  -2.5199  -2.5199  -2.5199  -2.5199
    -2.5096  -2.5096  -2.5096  -2.5096  -2.4860  -2.4860  -2.4406  -2.4406
    -2.3333  -2.3332  -2.3177  -2.3177  -2.0144  -2.0143  -1.9212  -1.9212
    -1.7398  -1.7398  -1.4017  -1.4017  -1.3552  -1.3552  -1.2937  -1.2937
    -1.2937  -1.2937  -1.2744  -1.2744  -1.2744  -1.2744  -1.2071  -1.2071
    -1.1045  -1.1045  -1.1045  -1.1045  -1.0610  -1.0610  -0.6271  -0.6271
    -0.6271  -0.6271  -0.5729  -0.5729  -0.4199  -0.4199  -0.2761  -0.2761
    -0.2593  -0.2593  -0.1634  -0.1634  -0.1634  -0.1634   0.1450   0.1450
     0.1561   0.1561   0.1561   0.1561   0.4964   0.4964   0.5284   0.5284
     2.4616   2.4616   2.6670   2.6670   2.6670   2.6670   2.7469   2.7469
     2.8253   2.8253   2.8669   2.8669   2.8669   2.8669   3.1090   3.1090
     3.1189   3.1189   3.1211   3.1211   3.1211   3.1211   3.1238   3.1238
     3.1418   3.1418   3.1889   3.1889   3.3867   3.3867   3.3867   3.3867
     3.4042   3.4042   3.6024   3.6024   3.6024   3.6024   3.7575   3.7575
     3.8180   3.8180   3.9924   3.9924   4.2308   4.2308   4.2399   4.2399
     4.2399   4.2399   4.3782   4.3782

          k = 0.4958 0.2959 0.0000 (126276 PWs)   bands (ev):

   -60.2493 -60.2493 -60.2405 -60.2401 -60.2276 -60.2276 -60.2274 -60.2274
   -60.2237 -60.2237 -60.2185 -60.2185 -60.2184 -60.2183 -60.2147 -60.2146
   -34.5187 -34.5187 -34.5181 -34.5181 -34.4947 -34.4947 -34.4853 -34.4835
   -34.4407 -34.4407 -34.4381 -34.4381 -34.3805 -34.3779 -34.3710 -34.3710
   -34.3532 -34.3524 -34.3273 -34.3273 -34.3269 -34.3268 -34.3268 -34.3232
   -34.3195 -34.3195 -34.3090 -34.3090 -34.3086 -34.3086 -34.3013 -34.3012
   -34.2988 -34.2988 -34.2974 -34.2974 -34.2676 -34.2676 -34.2673 -34.2673
   -34.2569 -34.2569 -34.2396 -34.2396 -34.2254 -34.2241 -34.1977 -34.1977
   -13.1911 -13.1911 -12.7924 -12.7733 -12.1368 -12.1367 -12.1235 -12.1235
   -12.0159 -12.0159 -11.9087 -11.9087 -11.8530 -11.8452 -11.5932 -11.5932
   -11.5859 -11.5859 -11.5827 -11.5826 -11.5807 -11.5807 -11.5035 -11.5035
   -11.3693 -11.3692 -11.3647 -11.3647 -11.3629 -11.3587 -11.2502 -11.2478
    -4.7968  -4.7968  -4.7967  -4.7967  -4.7580  -4.7580  -4.6850  -4.6850
    -4.6254  -4.6162  -4.4057  -4.4057  -4.3936  -4.3936  -4.3397  -4.3283
    -4.2764  -4.2529  -4.1789  -4.1789  -4.1633  -4.1632  -3.7441  -3.7441
    -3.4332  -3.4332  -3.4115  -3.4115  -3.2697  -3.2697  -3.2695  -3.2695
    -3.2672  -3.2672  -3.2281  -3.2268  -3.1485  -3.1485  -3.1477  -3.1477
    -3.0124  -2.9948  -2.5824  -2.5463  -2.5204  -2.5204  -2.5193  -2.5193
    -2.5114  -2.5114  -2.5079  -2.5078  -2.4969  -2.4751  -2.4407  -2.4406
    -2.3334  -2.3333  -2.3220  -2.3134  -2.0303  -1.9984  -1.9213  -1.9213
    -1.7397  -1.7397  -1.4076  -1.3958  -1.3597  -1.3507  -1.2979  -1.2979
    -1.2893  -1.2893  -1.2837  -1.2837  -1.2651  -1.2651  -1.2073  -1.2073
    -1.1081  -1.1081  -1.1008  -1.1008  -1.0609  -1.0609  -0.6356  -0.6356
    -0.6187  -0.6187  -0.5733  -0.5733  -0.4198  -0.4198  -0.2770  -0.2753
    -0.2590  -0.2590  -0.1638  -0.1638  -0.1630  -0.1630   0.1360   0.1502
     0.1502   0.1541   0.1620   0.1620   0.4915   0.5012   0.5284   0.5284
     2.4542   2.4689   2.6633   2.6634   2.6707   2.6707   2.7409   2.7530
     2.8253   2.8253   2.8654   2.8654   2.8682   2.8683   3.1091   3.1091
     3.1162   3.1210   3.1210   3.1212   3.1212   3.1212   3.1218   3.1264
     3.1418   3.1418   3.1888   3.1888   3.3789   3.3789   3.3944   3.3944
     3.4042   3.4042   3.5916   3.5916   3.6133   3.6133   3.7576   3.7576
     3.8129   3.8233   3.9849   3.9999   4.2307   4.2307   4.2382   4.2382
     4.2414   4.2414   4.3663   4.3900

          k = 0.4917 0.3031 0.0000 (126276 PWs)   bands (ev):

   -60.2493 -60.2493 -60.2407 -60.2399 -60.2277 -60.2277 -60.2273 -60.2273
   -60.2237 -60.2237 -60.2186 -60.2186 -60.2183 -60.2183 -60.2147 -60.2146
   -34.5190 -34.5190 -34.5178 -34.5178 -34.4947 -34.4947 -34.4861 -34.4826
   -34.4419 -34.4419 -34.4369 -34.4369 -34.3819 -34.3765 -34.3710 -34.3710
   -34.3536 -34.3520 -34.3287 -34.3276 -34.3275 -34.3266 -34.3266 -34.3213
   -34.3195 -34.3195 -34.3091 -34.3091 -34.3085 -34.3085 -34.3014 -34.3011
   -34.2995 -34.2995 -34.2967 -34.2967 -34.2678 -34.2678 -34.2671 -34.2671
   -34.2569 -34.2569 -34.2396 -34.2396 -34.2261 -34.2235 -34.1977 -34.1977
   -13.1909 -13.1909 -12.8019 -12.7637 -12.1434 -12.1433 -12.1169 -12.1169
   -12.0158 -12.0158 -11.9086 -11.9086 -11.8568 -11.8412 -11.5986 -11.5986
   -11.5885 -11.5885 -11.5781 -11.5781 -11.5775 -11.5775 -11.5035 -11.5035
   -11.3716 -11.3716 -11.3650 -11.3625 -11.3625 -11.3567 -11.2514 -11.2467
    -4.7966  -4.7966  -4.7965  -4.7965  -4.7579  -4.7579  -4.6848  -4.6848
    -4.6299  -4.6115  -4.4119  -4.4119  -4.3877  -4.3877  -4.3455  -4.3228
    -4.2881  -4.2412  -4.1865  -4.1865  -4.1553  -4.1553  -3.7442  -3.7442
    -3.4440  -3.4440  -3.4006  -3.4006  -3.2709  -3.2709  -3.2694  -3.2694
    -3.2660  -3.2660  -3.2290  -3.2265  -3.1490  -3.1490  -3.1474  -3.1474
    -3.0210  -2.9857  -2.5999  -2.5278  -2.5208  -2.5208  -2.5186  -2.5186
    -2.5132  -2.5132  -2.5079  -2.5061  -2.5061  -2.4642  -2.4409  -2.4409
    -2.3336  -2.3336  -2.3263  -2.3091  -2.0461  -1.9824  -1.9215  -1.9215
    -1.7396  -1.7396  -1.4137  -1.3901  -1.3642  -1.3462  -1.3018  -1.3018
    -1.2932  -1.2932  -1.2848  -1.2848  -1.2559  -1.2559  -1.2078  -1.2078
    -1.1118  -1.1118  -1.0971  -1.0971  -1.0607  -1.0607  -0.6442  -0.6442
    -0.6103  -0.6103  -0.5746  -0.5746  -0.4194  -0.4194  -0.2780  -0.2746
    -0.2583  -0.2583  -0.1640  -0.1640  -0.1625  -0.1625   0.1269   0.1442
     0.1442   0.1632   0.1678   0.1678   0.4867   0.5060   0.5283   0.5283
     2.4470   2.4764   2.6598   2.6598   2.6744   2.6744   2.7349   2.7592
     2.8252   2.8252   2.8638   2.8638   2.8694   2.8694   3.1092   3.1092
     3.1135   3.1188   3.1209   3.1209   3.1213   3.1213   3.1249   3.1292
     3.1416   3.1416   3.1885   3.1885   3.3713   3.3713   3.4023   3.4023
     3.4040   3.4040   3.5809   3.5809   3.6243   3.6243   3.7580   3.7580
     3.8080   3.8287   3.9772   4.0072   4.2304   4.2304   4.2363   4.2363
     4.2427   4.2428   4.3544   4.4018

          k = 0.4875 0.3103 0.0000 (126288 PWs)   bands (ev):

   -60.2493 -60.2493 -60.2409 -60.2397 -60.2279 -60.2278 -60.2271 -60.2271
   -60.2237 -60.2237 -60.2187 -60.2187 -60.2182 -60.2182 -60.2148 -60.2146
   -34.5193 -34.5193 -34.5174 -34.5174 -34.4947 -34.4947 -34.4870 -34.4817
   -34.4432 -34.4432 -34.4356 -34.4356 -34.3832 -34.3752 -34.3709 -34.3709
   -34.3540 -34.3516 -34.3306 -34.3278 -34.3278 -34.3264 -34.3264 -34.3195
   -34.3195 -34.3195 -34.3093 -34.3093 -34.3083 -34.3083 -34.3015 -34.3011
   -34.3002 -34.3002 -34.2960 -34.2960 -34.2680 -34.2679 -34.2669 -34.2669
   -34.2570 -34.2570 -34.2396 -34.2396 -34.2268 -34.2228 -34.1978 -34.1978
   -13.1907 -13.1907 -12.8113 -12.7541 -12.1499 -12.1499 -12.1102 -12.1102
   -12.0157 -12.0157 -11.9085 -11.9085 -11.8607 -11.8373 -11.6041 -11.6041
   -11.5911 -11.5911 -11.5755 -11.5755 -11.5725 -11.5725 -11.5034 -11.5034
   -11.3739 -11.3739 -11.3671 -11.3603 -11.3603 -11.3547 -11.2527 -11.2455
    -4.7963  -4.7963  -4.7962  -4.7962  -4.7577  -4.7577  -4.6846  -4.6846
    -4.6343  -4.6067  -4.4182  -4.4182  -4.3819  -4.3819  -4.3515  -4.3174
    -4.2998  -4.2294  -4.1941  -4.1941  -4.1473  -4.1473  -3.7443  -3.7443
    -3.4547  -3.4547  -3.3897  -3.3897  -3.2721  -3.2721  -3.2693  -3.2692
    -3.2647  -3.2647  -3.2301  -3.2264  -3.1496  -3.1496  -3.1471  -3.1471
    -3.0293  -2.9764  -2.6170  -2.5211  -2.5211  -2.5188  -2.5179  -2.5179
    -2.5149  -2.5149  -2.5090  -2.5043  -2.5043  -2.4534  -2.4413  -2.4413
    -2.3341  -2.3341  -2.3307  -2.3048  -2.0619  -1.9663  -1.9218  -1.9217
    -1.7394  -1.7394  -1.4198  -1.3845  -1.3688  -1.3417  -1.3056  -1.3056
    -1.3027  -1.3027  -1.2800  -1.2800  -1.2468  -1.2468  -1.2088  -1.2088
    -1.1154  -1.1154  -1.0934  -1.0934  -1.0603  -1.0602  -0.6528  -0.6528
    -0.6020  -0.6020  -0.5767  -0.5767  -0.4189  -0.4189  -0.2791  -0.2740
    -0.2570  -0.2570  -0.1643  -0.1643  -0.1619  -0.1619   0.1179   0.1382
     0.1382   0.1723   0.1736   0.1736   0.4818   0.5109   0.5281   0.5281
     2.4398   2.4838   2.6562   2.6562   2.6782   2.6782   2.7290   2.7654
     2.8251   2.8251   2.8620   2.8620   2.8705   2.8705   3.1094   3.1094
     3.1111   3.1165   3.1208   3.1208   3.1214   3.1214   3.1281   3.1321
     3.1413   3.1413   3.1881   3.1881   3.3637   3.3637   3.4037   3.4037
     3.4102   3.4102   3.5703   3.5703   3.6355   3.6355   3.7586   3.7586
     3.8031   3.8343   3.9695   4.0145   4.2298   4.2298   4.2342   4.2342
     4.2439   4.2439   4.3425   4.4135

          k = 0.4833 0.3175 0.0000 (126308 PWs)   bands (ev):

   -60.2493 -60.2493 -60.2411 -60.2395 -60.2280 -60.2280 -60.2270 -60.2270
   -60.2237 -60.2237 -60.2188 -60.2188 -60.2181 -60.2181 -60.2148 -60.2145
   -34.5195 -34.5195 -34.5170 -34.5170 -34.4947 -34.4947 -34.4879 -34.4808
   -34.4445 -34.4445 -34.4344 -34.4344 -34.3845 -34.3739 -34.3709 -34.3709
   -34.3544 -34.3512 -34.3324 -34.3280 -34.3280 -34.3261 -34.3261 -34.3195
   -34.3195 -34.3177 -34.3095 -34.3095 -34.3082 -34.3081 -34.3015 -34.3010
   -34.3010 -34.3010 -34.2953 -34.2953 -34.2681 -34.2681 -34.2667 -34.2667
   -34.2570 -34.2570 -34.2397 -34.2397 -34.2274 -34.2222 -34.1978 -34.1978
   -13.1904 -13.1904 -12.8207 -12.7444 -12.1565 -12.1565 -12.1035 -12.1035
   -12.0156 -12.0156 -11.9083 -11.9083 -11.8645 -11.8333 -11.6097 -11.6097
   -11.5937 -11.5937 -11.5729 -11.5729 -11.5676 -11.5675 -11.5033 -11.5033
   -11.3763 -11.3763 -11.3693 -11.3581 -11.3581 -11.3527 -11.2539 -11.2444
    -4.7958  -4.7958  -4.7957  -4.7957  -4.7574  -4.7574  -4.6843  -4.6843
    -4.6386  -4.6018  -4.4246  -4.4246  -4.3762  -4.3762  -4.3576  -4.3122
    -4.3115  -4.2177  -4.2015  -4.2015  -4.1391  -4.1391  -3.7445  -3.7445
    -3.4654  -3.4653  -3.3787  -3.3787  -3.2732  -3.2732  -3.2690  -3.2690
    -3.2634  -3.2634  -3.2315  -3.2264  -3.1503  -3.1502  -3.1470  -3.1470
    -3.0375  -2.9670  -2.6338  -2.5298  -2.5214  -2.5214  -2.5171  -2.5171
    -2.5166  -2.5166  -2.5025  -2.5025  -2.4899  -2.4425  -2.4418  -2.4418
    -2.3350  -2.3348  -2.3348  -2.3005  -2.0777  -1.9503  -1.9222  -1.9222
    -1.7391  -1.7391  -1.4261  -1.3791  -1.3733  -1.3373  -1.3123  -1.3123
    -1.3092  -1.3092  -1.2751  -1.2751  -1.2378  -1.2378  -1.2100  -1.2100
    -1.1190  -1.1190  -1.0897  -1.0897  -1.0597  -1.0597  -0.6614  -0.6614
    -0.5938  -0.5938  -0.5796  -0.5796  -0.4181  -0.4181  -0.2803  -0.2735
    -0.2552  -0.2552  -0.1644  -0.1644  -0.1613  -0.1613   0.1090   0.1321
     0.1321   0.1793   0.1793   0.1814   0.4769   0.5157   0.5278   0.5279
     2.4327   2.4913   2.6528   2.6528   2.6821   2.6821   2.7232   2.7718
     2.8249   2.8249   2.8600   2.8600   2.8713   2.8713   3.1088   3.1097
     3.1097   3.1143   3.1207   3.1207   3.1216   3.1216   3.1314   3.1351
     3.1408   3.1408   3.1875   3.1875   3.3561   3.3561   3.4032   3.4032
     3.4181   3.4181   3.5599   3.5599   3.6467   3.6467   3.7594   3.7594
     3.7985   3.8401   3.9617   4.0216   4.2291   4.2291   4.2320   4.2320
     4.2449   4.2449   4.3305   4.4252

          k = 0.4792 0.3248 0.0000 (126308 PWs)   bands (ev):

   -60.2493 -60.2493 -60.2413 -60.2393 -60.2281 -60.2281 -60.2269 -60.2269
   -60.2237 -60.2237 -60.2189 -60.2189 -60.2180 -60.2180 -60.2149 -60.2145
   -34.5198 -34.5198 -34.5166 -34.5166 -34.4946 -34.4946 -34.4888 -34.4799
   -34.4458 -34.4458 -34.4331 -34.4331 -34.3858 -34.3725 -34.3709 -34.3709
   -34.3548 -34.3508 -34.3342 -34.3283 -34.3283 -34.3259 -34.3259 -34.3195
   -34.3195 -34.3158 -34.3097 -34.3097 -34.3080 -34.3080 -34.3017 -34.3017
   -34.3016 -34.3009 -34.2946 -34.2946 -34.2682 -34.2682 -34.2665 -34.2665
   -34.2571 -34.2571 -34.2398 -34.2398 -34.2281 -34.2215 -34.1978 -34.1978
   -13.1900 -13.1900 -12.8300 -12.7346 -12.1631 -12.1631 -12.0969 -12.0969
   -12.0154 -12.0154 -11.9081 -11.9080 -11.8683 -11.8293 -11.6154 -11.6154
   -11.5963 -11.5963 -11.5703 -11.5702 -11.5627 -11.5627 -11.5032 -11.5032
   -11.3788 -11.3788 -11.3715 -11.3560 -11.3560 -11.3507 -11.2552 -11.2433
    -4.7952  -4.7952  -4.7950  -4.7950  -4.7570  -4.7570  -4.6838  -4.6838
    -4.6429  -4.5968  -4.4311  -4.4311  -4.3706  -4.3706  -4.3638  -4.3231
    -4.3072  -4.2089  -4.2089  -4.2059  -4.1309  -4.1309  -3.7448  -3.7448
    -3.4759  -3.4759  -3.3676  -3.3676  -3.2743  -3.2743  -3.2688  -3.2688
    -3.2621  -3.2621  -3.2332  -3.2265  -3.1510  -3.1510  -3.1469  -3.1469
    -3.0454  -2.9574  -2.6501  -2.5409  -2.5215  -2.5215  -2.5183  -2.5183
    -2.5162  -2.5162  -2.5007  -2.5007  -2.4705  -2.4426  -2.4425  -2.4316
    -2.3393  -2.3357  -2.3357  -2.2962  -2.0933  -1.9342  -1.9227  -1.9227
    -1.7388  -1.7388  -1.4324  -1.3778  -1.3737  -1.3328  -1.3220  -1.3220
    -1.3126  -1.3126  -1.2699  -1.2699  -1.2289  -1.2289  -1.2117  -1.2117
    -1.1226  -1.1226  -1.0859  -1.0859  -1.0589  -1.0589  -0.6701  -0.6701
    -0.5856  -0.5856  -0.5833  -0.5833  -0.4171  -0.4171  -0.2816  -0.2731
    -0.2530  -0.2530  -0.1645  -0.1645  -0.1606  -0.1606   0.1000   0.1260
     0.1260   0.1849   0.1850   0.1904   0.4721   0.5204   0.5275   0.5275
     2.4256   2.4989   2.6494   2.6494   2.6859   2.6859   2.7174   2.7781
     2.8247   2.8247   2.8580   2.8580   2.8720   2.8721   3.1066   3.1101
     3.1101   3.1122   3.1206   3.1206   3.1217   3.1217   3.1349   3.1382
     3.1403   3.1403   3.1868   3.1868   3.3487   3.3487   3.4027   3.4027
     3.4260   3.4260   3.5496   3.5496   3.6581   3.6581   3.7605   3.7605
     3.7940   3.8460   3.9538   4.0286   4.2282   4.2282   4.2296   4.2296
     4.2456   4.2456   4.3185   4.4369

          k = 0.4750 0.3320 0.0000 (126292 PWs)   bands (ev):

   -60.2493 -60.2493 -60.2415 -60.2391 -60.2282 -60.2282 -60.2268 -60.2268
   -60.2237 -60.2237 -60.2190 -60.2190 -60.2180 -60.2180 -60.2149 -60.2145
   -34.5200 -34.5200 -34.5162 -34.5162 -34.4946 -34.4946 -34.4897 -34.4790
   -34.4471 -34.4471 -34.4319 -34.4319 -34.3871 -34.3711 -34.3709 -34.3709
   -34.3552 -34.3504 -34.3361 -34.3285 -34.3285 -34.3256 -34.3256 -34.3195
   -34.3195 -34.3140 -34.3099 -34.3099 -34.3078 -34.3078 -34.3024 -34.3024
   -34.3017 -34.3009 -34.2938 -34.2938 -34.2684 -34.2684 -34.2663 -34.2663
   -34.2572 -34.2572 -34.2399 -34.2399 -34.2288 -34.2209 -34.1979 -34.1979
   -13.1895 -13.1895 -12.8393 -12.7249 -12.1696 -12.1696 -12.0902 -12.0902
   -12.0152 -12.0152 -11.9078 -11.9077 -11.8721 -11.8253 -11.6212 -11.6212
   -11.5989 -11.5989 -11.5676 -11.5676 -11.5580 -11.5580 -11.5031 -11.5031
   -11.3812 -11.3812 -11.3738 -11.3539 -11.3539 -11.3488 -11.2565 -11.2422
    -4.7945  -4.7945  -4.7942  -4.7942  -4.7565  -4.7565  -4.6833  -4.6833
    -4.6470  -4.5918  -4.4377  -4.4377  -4.3701  -4.3651  -4.3651  -4.3347
    -4.3023  -4.2161  -4.2161  -4.1942  -4.1226  -4.1226  -3.7451  -3.7451
    -3.4865  -3.4865  -3.3566  -3.3566  -3.2754  -3.2754  -3.2685  -3.2685
    -3.2608  -3.2608  -3.2351  -3.2269  -3.1518  -3.1518  -3.1469  -3.1468
    -3.0532  -2.9476  -2.6660  -2.5520  -2.5216  -2.5216  -2.5200  -2.5200
    -2.5153  -2.5153  -2.4989  -2.4989  -2.4508  -2.4434  -2.4434  -2.4207
    -2.3436  -2.3368  -2.3368  -2.2920  -2.1089  -1.9233  -1.9233  -1.9181
    -1.7383  -1.7383  -1.4389  -1.3823  -1.3685  -1.3318  -1.3318  -1.3284
    -1.3158  -1.3158  -1.2646  -1.2646  -1.2201  -1.2201  -1.2137  -1.2137
    -1.1261  -1.1261  -1.0822  -1.0822  -1.0580  -1.0580  -0.6788  -0.6788
    -0.5877  -0.5877  -0.5775  -0.5775  -0.4158  -0.4158  -0.2830  -0.2728
    -0.2504  -0.2504  -0.1645  -0.1645  -0.1598  -0.1598   0.0912   0.1199
     0.1199   0.1905   0.1905   0.1995   0.4673   0.5252   0.5271   0.5272
     2.4187   2.5065   2.6460   2.6460   2.6898   2.6898   2.7118   2.7846
     2.8245   2.8245   2.8558   2.8558   2.8726   2.8726   3.1046   3.1103
     3.1105   3.1105   3.1205   3.1205   3.1219   3.1219   3.1385   3.1396
     3.1396   3.1414   3.1859   3.1859   3.3414   3.3414   3.4020   3.4020
     3.4340   3.4340   3.5394   3.5394   3.6695   3.6695   3.7618   3.7618
     3.7897   3.8521   3.9459   4.0355   4.2270   4.2270   4.2270   4.2270
     4.2462   4.2462   4.3065   4.4485

          k = 0.4708 0.3392 0.0000 (126303 PWs)   bands (ev):

   -60.2493 -60.2492 -60.2417 -60.2389 -60.2283 -60.2283 -60.2267 -60.2267
   -60.2237 -60.2237 -60.2191 -60.2191 -60.2179 -60.2179 -60.2149 -60.2144
   -34.5202 -34.5202 -34.5158 -34.5158 -34.4946 -34.4946 -34.4906 -34.4781
   -34.4484 -34.4484 -34.4307 -34.4307 -34.3883 -34.3709 -34.3709 -34.3698
   -34.3556 -34.3500 -34.3379 -34.3287 -34.3287 -34.3254 -34.3254 -34.3194
   -34.3194 -34.3122 -34.3101 -34.3101 -34.3077 -34.3077 -34.3031 -34.3031
   -34.3018 -34.3008 -34.2931 -34.2931 -34.2685 -34.2685 -34.2661 -34.2661
   -34.2573 -34.2573 -34.2400 -34.2400 -34.2295 -34.2203 -34.1979 -34.1979
   -13.1889 -13.1889 -12.8485 -12.7150 -12.1761 -12.1761 -12.0835 -12.0835
   -12.0150 -12.0150 -11.9074 -11.9074 -11.8759 -11.8213 -11.6271 -11.6271
   -11.6015 -11.6015 -11.5650 -11.5650 -11.5533 -11.5533 -11.5029 -11.5029
   -11.3837 -11.3837 -11.3760 -11.3519 -11.3519 -11.3470 -11.2578 -11.2412
    -4.7936  -4.7936  -4.7933  -4.7933  -4.7560  -4.7560  -4.6827  -4.6827
    -4.6510  -4.5867  -4.4444  -4.4444  -4.3765  -4.3597  -4.3597  -4.3463
    -4.2975  -4.2233  -4.2233  -4.1825  -4.1142  -4.1142  -3.7455  -3.7455
    -3.4969  -3.4969  -3.3455  -3.3455  -3.2765  -3.2765  -3.2681  -3.2681
    -3.2595  -3.2594  -3.2373  -3.2273  -3.1527  -3.1527  -3.1469  -3.1469
    -3.0607  -2.9377  -2.6815  -2.5631  -2.5216  -2.5216  -2.5216  -2.5216
    -2.5143  -2.5143  -2.4971  -2.4971  -2.4444  -2.4444  -2.4310  -2.4098
    -2.3478  -2.3381  -2.3381  -2.2878  -2.1243  -1.9241  -1.9241  -1.9021
    -1.7378  -1.7378  -1.4453  -1.3867  -1.3635  -1.3417  -1.3417  -1.3241
    -1.3188  -1.3188  -1.2591  -1.2591  -1.2161  -1.2161  -1.2114  -1.2114
    -1.1296  -1.1296  -1.0785  -1.0785  -1.0569  -1.0569  -0.6875  -0.6875
    -0.5929  -0.5929  -0.5695  -0.5695  -0.4144  -0.4144  -0.2845  -0.2726
    -0.2474  -0.2474  -0.1645  -0.1645  -0.1590  -0.1590   0.0823   0.1137
     0.1137   0.1960   0.1960   0.2085   0.4625   0.5267   0.5267   0.5299
     2.4118   2.5141   2.6428   2.6428   2.6938   2.6938   2.7062   2.7911
     2.8242   2.8242   2.8535   2.8535   2.8729   2.8730   3.1028   3.1084
     3.1110   3.1110   3.1204   3.1204   3.1221   3.1221   3.1388   3.1388
     3.1423   3.1447   3.1848   3.1848   3.3341   3.3341   3.4012   3.4012
     3.4419   3.4419   3.5294   3.5294   3.6810   3.6810   3.7633   3.7633
     3.7855   3.8583   3.9378   4.0423   4.2243   4.2243   4.2257   4.2257
     4.2466   4.2466   4.2945   4.4600

          k = 0.4667 0.3464 0.0000 (126301 PWs)   bands (ev):

   -60.2492 -60.2492 -60.2419 -60.2386 -60.2284 -60.2284 -60.2265 -60.2265
   -60.2237 -60.2237 -60.2192 -60.2191 -60.2178 -60.2178 -60.2150 -60.2144
   -34.5203 -34.5203 -34.5153 -34.5153 -34.4946 -34.4945 -34.4914 -34.4773
   -34.4497 -34.4497 -34.4295 -34.4295 -34.3896 -34.3708 -34.3708 -34.3684
   -34.3560 -34.3495 -34.3398 -34.3290 -34.3290 -34.3252 -34.3252 -34.3194
   -34.3194 -34.3103 -34.3103 -34.3102 -34.3076 -34.3075 -34.3038 -34.3038
   -34.3018 -34.3007 -34.2924 -34.2924 -34.2686 -34.2686 -34.2659 -34.2659
   -34.2575 -34.2575 -34.2401 -34.2401 -34.2302 -34.2197 -34.1980 -34.1980
   -13.1882 -13.1882 -12.8577 -12.7052 -12.1826 -12.1826 -12.0768 -12.0768
   -12.0147 -12.0147 -11.9070 -11.9070 -11.8796 -11.8173 -11.6331 -11.6331
   -11.6041 -11.6041 -11.5624 -11.5624 -11.5488 -11.5488 -11.5027 -11.5027
   -11.3863 -11.3863 -11.3783 -11.3499 -11.3498 -11.3452 -11.2591 -11.2402
    -4.7926  -4.7926  -4.7923  -4.7923  -4.7554  -4.7554  -4.6819  -4.6819
    -4.6549  -4.5815  -4.4511  -4.4511  -4.3830  -4.3578  -4.3545  -4.3545
    -4.2930  -4.2303  -4.2303  -4.1708  -4.1057  -4.1057  -3.7460  -3.7460
    -3.5073  -3.5073  -3.3343  -3.3343  -3.2775  -3.2775  -3.2676  -3.2676
    -3.2581  -3.2581  -3.2397  -3.2279  -3.1537  -3.1537  -3.1470  -3.1470
    -3.0680  -2.9277  -2.6964  -2.5743  -2.5232  -2.5232  -2.5214  -2.5214
    -2.5132  -2.5132  -2.4953  -2.4953  -2.4456  -2.4456  -2.4109  -2.3989
    -2.3521  -2.3396  -2.3396  -2.2836  -2.1396  -1.9250  -1.9250  -1.8860
    -1.7373  -1.7372  -1.4519  -1.3912  -1.3586  -1.3517  -1.3517  -1.3216
    -1.3216  -1.3197  -1.2533  -1.2533  -1.2188  -1.2187  -1.2028  -1.2028
    -1.1331  -1.1331  -1.0747  -1.0747  -1.0557  -1.0557  -0.6962  -0.6962
    -0.5987  -0.5987  -0.5616  -0.5616  -0.4128  -0.4128  -0.2861  -0.2726
    -0.2440  -0.2440  -0.1643  -0.1643  -0.1581  -0.1581   0.0736   0.1074
     0.1075   0.2015   0.2015   0.2176   0.4576   0.5262   0.5262   0.5345
     2.4050   2.5217   2.6396   2.6396   2.6977   2.6977   2.7007   2.7977
     2.8239   2.8239   2.8511   2.8511   2.8731   2.8731   3.1011   3.1067
     3.1116   3.1116   3.1203   3.1203   3.1223   3.1223   3.1378   3.1378
     3.1462   3.1482   3.1836   3.1836   3.3270   3.3270   3.4003   3.4003
     3.4499   3.4499   3.5195   3.5196   3.6926   3.6926   3.7651   3.7651
     3.7814   3.8647   3.9297   4.0489   4.2215   4.2215   4.2241   4.2241
     4.2467   4.2467   4.2824   4.4715

          k = 0.4625 0.3536 0.0000 (126333 PWs)   bands (ev):

   -60.2492 -60.2492 -60.2421 -60.2384 -60.2286 -60.2286 -60.2264 -60.2264
   -60.2237 -60.2237 -60.2193 -60.2192 -60.2177 -60.2177 -60.2150 -60.2144
   -34.5205 -34.5205 -34.5149 -34.5149 -34.4945 -34.4945 -34.4923 -34.4764
   -34.4510 -34.4510 -34.4283 -34.4283 -34.3909 -34.3708 -34.3708 -34.3671
   -34.3564 -34.3491 -34.3416 -34.3292 -34.3292 -34.3249 -34.3249 -34.3194
   -34.3194 -34.3105 -34.3104 -34.3085 -34.3074 -34.3074 -34.3045 -34.3045
   -34.3019 -34.3007 -34.2917 -34.2917 -34.2688 -34.2688 -34.2657 -34.2657
   -34.2576 -34.2576 -34.2403 -34.2403 -34.2309 -34.2191 -34.1980 -34.1980
   -13.1875 -13.1874 -12.8668 -12.6953 -12.1891 -12.1890 -12.0701 -12.0701
   -12.0144 -12.0144 -11.9065 -11.9065 -11.8834 -11.8132 -11.6391 -11.6391
   -11.6067 -11.6067 -11.5598 -11.5598 -11.5443 -11.5443 -11.5024 -11.5024
   -11.3888 -11.3888 -11.3806 -11.3479 -11.3479 -11.3434 -11.2604 -11.2392
    -4.7914  -4.7914  -4.7911  -4.7911  -4.7546  -4.7546  -4.6811  -4.6811
    -4.6588  -4.5763  -4.4580  -4.4580  -4.3896  -4.3693  -4.3493  -4.3493
    -4.2886  -4.2373  -4.2372  -4.1591  -4.0971  -4.0971  -3.7465  -3.7465
    -3.5177  -3.5177  -3.3232  -3.3232  -3.2786  -3.2785  -3.2671  -3.2671
    -3.2568  -3.2568  -3.2425  -3.2286  -3.1548  -3.1548  -3.1471  -3.1471
    -3.0751  -2.9175  -2.7109  -2.5855  -2.5247  -2.5247  -2.5212  -2.5212
    -2.5121  -2.5121  -2.4935  -2.4935  -2.4470  -2.4470  -2.3905  -2.3879
    -2.3563  -2.3412  -2.3412  -2.2795  -2.1548  -1.9260  -1.9259  -1.8699
    -1.7366  -1.7366  -1.4586  -1.3956  -1.3617  -1.3617  -1.3539  -1.3242
    -1.3242  -1.3154  -1.2474  -1.2474  -1.2218  -1.2218  -1.1943  -1.1943
    -1.1366  -1.1366  -1.0710  -1.0710  -1.0543  -1.0543  -0.7050  -0.7050
    -0.6052  -0.6051  -0.5538  -0.5538  -0.4110  -0.4110  -0.2878  -0.2726
    -0.2404  -0.2404  -0.1641  -0.1641  -0.1571  -0.1571   0.0649   0.1012
     0.1012   0.2069   0.2069   0.2265   0.4529   0.5256   0.5256   0.5392
     2.3984   2.5293   2.6365   2.6365   2.6953   2.7017   2.7017   2.8043
     2.8235   2.8235   2.8485   2.8485   2.8732   2.8732   3.0995   3.1052
     3.1123   3.1123   3.1202   3.1202   3.1225   3.1225   3.1368   3.1368
     3.1503   3.1517   3.1822   3.1822   3.3200   3.3200   3.3993   3.3993
     3.4578   3.4578   3.5098   3.5098   3.7043   3.7043   3.7671   3.7671
     3.7775   3.8712   3.9216   4.0554   4.2185   4.2185   4.2223   4.2223
     4.2467   4.2467   4.2703   4.4829

          k = 0.4583 0.3608 0.0000 (126361 PWs)   bands (ev):

   -60.2492 -60.2492 -60.2423 -60.2382 -60.2287 -60.2287 -60.2263 -60.2263
   -60.2237 -60.2237 -60.2193 -60.2193 -60.2177 -60.2177 -60.2150 -60.2144
   -34.5206 -34.5206 -34.5144 -34.5144 -34.4945 -34.4945 -34.4932 -34.4755
   -34.4523 -34.4523 -34.4271 -34.4271 -34.3921 -34.3708 -34.3708 -34.3657
   -34.3568 -34.3487 -34.3434 -34.3295 -34.3295 -34.3247 -34.3247 -34.3194
   -34.3194 -34.3106 -34.3106 -34.3073 -34.3073 -34.3067 -34.3052 -34.3052
   -34.3020 -34.3006 -34.2910 -34.2910 -34.2689 -34.2689 -34.2655 -34.2655
   -34.2578 -34.2578 -34.2405 -34.2405 -34.2316 -34.2185 -34.1981 -34.1981
   -13.1866 -13.1866 -12.8759 -12.6853 -12.1955 -12.1955 -12.0634 -12.0634
   -12.0141 -12.0141 -11.9060 -11.9060 -11.8871 -11.8092 -11.6453 -11.6453
   -11.6092 -11.6092 -11.5572 -11.5572 -11.5400 -11.5400 -11.5022 -11.5022
   -11.3914 -11.3914 -11.3829 -11.3459 -11.3459 -11.3416 -11.2618 -11.2382
    -4.7902  -4.7902  -4.7898  -4.7898  -4.7538  -4.7538  -4.6802  -4.6802
    -4.6625  -4.5710  -4.4649  -4.4649  -4.3962  -4.3808  -4.3443  -4.3443
    -4.2843  -4.2441  -4.2441  -4.1475  -4.0884  -4.0884  -3.7471  -3.7471
    -3.5279  -3.5279  -3.3120  -3.3120  -3.2795  -3.2795  -3.2666  -3.2666
    -3.2555  -3.2555  -3.2456  -3.2294  -3.1559  -3.1559  -3.1473  -3.1473
    -3.0819  -2.9072  -2.7249  -2.5969  -2.5262  -2.5262  -2.5209  -2.5209
    -2.5109  -2.5109  -2.4918  -2.4918  -2.4485  -2.4485  -2.3770  -2.3700
    -2.3605  -2.3431  -2.3431  -2.2754  -2.1699  -1.9271  -1.9271  -1.8539
    -1.7358  -1.7358  -1.4653  -1.4000  -1.3718  -1.3718  -1.3494  -1.3266
    -1.3266  -1.3112  -1.2413  -1.2413  -1.2251  -1.2251  -1.1859  -1.1859
    -1.1400  -1.1400  -1.0672  -1.0672  -1.0527  -1.0527  -0.7137  -0.7137
    -0.6122  -0.6122  -0.5460  -0.5460  -0.4090  -0.4090  -0.2895  -0.2727
    -0.2364  -0.2364  -0.1639  -0.1639  -0.1561  -0.1561   0.0563   0.0949
     0.0949   0.2121   0.2122   0.2355   0.4481   0.5249   0.5249   0.5437
     2.3918   2.5369   2.6334   2.6334   2.6900   2.7057   2.7057   2.8110
     2.8231   2.8231   2.8459   2.8459   2.8730   2.8730   3.0981   3.1037
     3.1131   3.1131   3.1201   3.1201   3.1227   3.1227   3.1356   3.1356
     3.1545   3.1554   3.1807   3.1808   3.3130   3.3130   3.3981   3.3981
     3.4658   3.4658   3.5003   3.5003   3.7161   3.7161   3.7693   3.7693
     3.7738   3.8779   3.9133   4.0618   4.2154   4.2154   4.2203   4.2203
     4.2464   4.2464   4.2582   4.4943

          k = 0.4542 0.3681 0.0000 (126381 PWs)   bands (ev):

   -60.2492 -60.2492 -60.2425 -60.2380 -60.2288 -60.2288 -60.2262 -60.2262
   -60.2237 -60.2237 -60.2194 -60.2194 -60.2176 -60.2176 -60.2151 -60.2143
   -34.5208 -34.5208 -34.5139 -34.5138 -34.4944 -34.4944 -34.4940 -34.4746
   -34.4536 -34.4536 -34.4259 -34.4259 -34.3933 -34.3707 -34.3707 -34.3643
   -34.3572 -34.3483 -34.3453 -34.3297 -34.3297 -34.3245 -34.3245 -34.3194
   -34.3194 -34.3109 -34.3108 -34.3071 -34.3071 -34.3059 -34.3059 -34.3049
   -34.3021 -34.3006 -34.2903 -34.2903 -34.2690 -34.2690 -34.2652 -34.2652
   -34.2580 -34.2580 -34.2407 -34.2407 -34.2323 -34.2179 -34.1982 -34.1982
   -13.1856 -13.1856 -12.8849 -12.6753 -12.2019 -12.2019 -12.0567 -12.0567
   -12.0137 -12.0137 -11.9054 -11.9054 -11.8908 -11.8051 -11.6515 -11.6515
   -11.6118 -11.6118 -11.5546 -11.5546 -11.5358 -11.5357 -11.5019 -11.5019
   -11.3940 -11.3940 -11.3853 -11.3440 -11.3440 -11.3399 -11.2631 -11.2372
    -4.7888  -4.7887  -4.7884  -4.7884  -4.7530  -4.7529  -4.6792  -4.6792
    -4.6662  -4.5656  -4.4718  -4.4718  -4.4030  -4.3922  -4.3394  -4.3394
    -4.2803  -4.2508  -4.2508  -4.1360  -4.0797  -4.0797  -3.7478  -3.7477
    -3.5381  -3.5381  -3.3008  -3.3008  -3.2804  -3.2804  -3.2659  -3.2659
    -3.2541  -3.2541  -3.2490  -3.2303  -3.1571  -3.1571  -3.1476  -3.1476
    -3.0885  -2.8968  -2.7383  -2.6083  -2.5277  -2.5277  -2.5205  -2.5205
    -2.5097  -2.5097  -2.4900  -2.4900  -2.4501  -2.4501  -2.3660  -2.3647
    -2.3493  -2.3451  -2.3451  -2.2714  -2.1848  -1.9283  -1.9283  -1.8379
    -1.7350  -1.7350  -1.4720  -1.4043  -1.3820  -1.3820  -1.3450  -1.3289
    -1.3289  -1.3069  -1.2350  -1.2350  -1.2288  -1.2288  -1.1776  -1.1776
    -1.1434  -1.1434  -1.0635  -1.0634  -1.0510  -1.0510  -0.7225  -0.7225
    -0.6198  -0.6198  -0.5384  -0.5384  -0.4068  -0.4068  -0.2914  -0.2729
    -0.2323  -0.2323  -0.1636  -0.1636  -0.1550  -0.1550   0.0477   0.0886
     0.0886   0.2174   0.2174   0.2444   0.4434   0.5242   0.5242   0.5482
     2.3854   2.5445   2.6305   2.6305   2.6847   2.7097   2.7097   2.8177
     2.8227   2.8227   2.8431   2.8431   2.8727   2.8727   3.0968   3.1024
     3.1139   3.1139   3.1199   3.1199   3.1230   3.1230   3.1343   3.1343
     3.1588   3.1591   3.1791   3.1791   3.3062   3.3062   3.3969   3.3969
     3.4737   3.4737   3.4909   3.4909   3.7279   3.7279   3.7702   3.7717
     3.7717   3.8848   3.9050   4.0680   4.2121   4.2122   4.2182   4.2182
     4.2459   4.2459   4.2461   4.5056

          k = 0.4500 0.3753 0.0000 (126381 PWs)   bands (ev):

   -60.2492 -60.2491 -60.2427 -60.2378 -60.2289 -60.2289 -60.2261 -60.2261
   -60.2237 -60.2237 -60.2196 -60.2195 -60.2175 -60.2175 -60.2151 -60.2143
   -34.5209 -34.5209 -34.5133 -34.5133 -34.4949 -34.4944 -34.4943 -34.4738
   -34.4549 -34.4549 -34.4247 -34.4247 -34.3945 -34.3707 -34.3707 -34.3630
   -34.3576 -34.3479 -34.3471 -34.3299 -34.3299 -34.3242 -34.3242 -34.3194
   -34.3193 -34.3111 -34.3110 -34.3070 -34.3070 -34.3066 -34.3066 -34.3031
   -34.3022 -34.3005 -34.2896 -34.2896 -34.2691 -34.2691 -34.2650 -34.2650
   -34.2582 -34.2582 -34.2409 -34.2409 -34.2330 -34.2173 -34.1983 -34.1983
   -13.1846 -13.1846 -12.8939 -12.6653 -12.2083 -12.2083 -12.0500 -12.0500
   -12.0132 -12.0132 -11.9048 -11.9048 -11.8944 -11.8010 -11.6578 -11.6578
   -11.6143 -11.6143 -11.5520 -11.5520 -11.5316 -11.5316 -11.5016 -11.5016
   -11.3967 -11.3967 -11.3876 -11.3422 -11.3422 -11.3383 -11.2645 -11.2363
    -4.7872  -4.7872  -4.7868  -4.7868  -4.7520  -4.7520  -4.6781  -4.6781
    -4.6697  -4.5602  -4.4789  -4.4789  -4.4098  -4.4036  -4.3346  -4.3346
    -4.2765  -4.2574  -4.2574  -4.1245  -4.0709  -4.0709  -3.7485  -3.7485
    -3.5482  -3.5482  -3.2896  -3.2896  -3.2813  -3.2813  -3.2653  -3.2653
    -3.2528  -3.2528  -3.2527  -3.2313  -3.1584  -3.1584  -3.1479  -3.1479
    -3.0948  -2.8862  -2.7512  -2.6198  -2.5291  -2.5291  -2.5199  -2.5199
    -2.5084  -2.5084  -2.4883  -2.4883  -2.4519  -2.4519  -2.3689  -2.3550
    -2.3473  -2.3473  -2.3284  -2.2674  -2.1996  -1.9297  -1.9297  -1.8219
    -1.7341  -1.7341  -1.4788  -1.4086  -1.3923  -1.3923  -1.3409  -1.3310
    -1.3310  -1.3028  -1.2327  -1.2327  -1.2285  -1.2285  -1.1694  -1.1694
    -1.1467  -1.1467  -1.0597  -1.0597  -1.0492  -1.0491  -0.7312  -0.7312
    -0.6279  -0.6279  -0.5309  -0.5309  -0.4045  -0.4045  -0.2934  -0.2733
    -0.2279  -0.2279  -0.1632  -0.1632  -0.1538  -0.1538   0.0393   0.0822
     0.0822   0.2225   0.2225   0.2533   0.4387   0.5234   0.5234   0.5527
     2.3791   2.5522   2.6276   2.6276   2.6796   2.7137   2.7137   2.8222
     2.8222   2.8246   2.8403   2.8403   2.8722   2.8722   3.0956   3.1012
     3.1148   3.1148   3.1198   3.1198   3.1233   3.1233   3.1328   3.1328
     3.1630   3.1633   3.1774   3.1774   3.2995   3.2995   3.3955   3.3955
     3.4816   3.4816   3.4816   3.4816   3.7398   3.7398   3.7668   3.7743
     3.7743   3.8918   3.8967   4.0741   4.2088   4.2088   4.2158   4.2158
     4.2340   4.2453   4.2453   4.5169

          k = 0.4458 0.3825 0.0000 (126397 PWs)   bands (ev):

   -60.2491 -60.2491 -60.2428 -60.2376 -60.2290 -60.2290 -60.2260 -60.2260
   -60.2237 -60.2237 -60.2197 -60.2196 -60.2175 -60.2175 -60.2152 -60.2143
   -34.5209 -34.5209 -34.5128 -34.5128 -34.4958 -34.4943 -34.4943 -34.4729
   -34.4562 -34.4562 -34.4235 -34.4235 -34.3957 -34.3706 -34.3706 -34.3616
   -34.3580 -34.3489 -34.3475 -34.3302 -34.3302 -34.3240 -34.3240 -34.3193
   -34.3193 -34.3113 -34.3113 -34.3073 -34.3073 -34.3069 -34.3069 -34.3022
   -34.3012 -34.3005 -34.2889 -34.2889 -34.2692 -34.2692 -34.2647 -34.2647
   -34.2584 -34.2584 -34.2411 -34.2411 -34.2338 -34.2167 -34.1984 -34.1984
   -13.1835 -13.1835 -12.9028 -12.6552 -12.2147 -12.2147 -12.0433 -12.0432
   -12.0128 -12.0128 -11.9041 -11.9041 -11.8981 -11.7969 -11.6642 -11.6642
   -11.6169 -11.6169 -11.5494 -11.5494 -11.5276 -11.5276 -11.5012 -11.5012
   -11.3994 -11.3994 -11.3900 -11.3403 -11.3403 -11.3366 -11.2659 -11.2354
    -4.7855  -4.7855  -4.7851  -4.7851  -4.7509  -4.7509  -4.6769  -4.6769
    -4.6731  -4.5547  -4.4860  -4.4860  -4.4166  -4.4149  -4.3300  -4.3300
    -4.2728  -4.2639  -4.2639  -4.1131  -4.0620  -4.0620  -3.7492  -3.7492
    -3.5583  -3.5583  -3.2822  -3.2822  -3.2784  -3.2784  -3.2645  -3.2645
    -3.2568  -3.2515  -3.2515  -3.2324  -3.1598  -3.1598  -3.1482  -3.1482
    -3.1009  -2.8756  -2.7635  -2.6315  -2.5304  -2.5304  -2.5193  -2.5193
    -2.5071  -2.5071  -2.4866  -2.4866  -2.4539  -2.4539  -2.3730  -2.3496
    -2.3496  -2.3440  -2.3073  -2.2634  -2.2142  -1.9312  -1.9312  -1.8059
    -1.7331  -1.7331  -1.4857  -1.4129  -1.4026  -1.4026  -1.3369  -1.3328
    -1.3328  -1.2987  -1.2369  -1.2369  -1.2218  -1.2218  -1.1613  -1.1613
    -1.1500  -1.1500  -1.0559  -1.0559  -1.0472  -1.0472  -0.7400  -0.7400
    -0.6366  -0.6366  -0.5236  -0.5236  -0.4021  -0.4021  -0.2955  -0.2737
    -0.2234  -0.2233  -0.1628  -0.1628  -0.1526  -0.1526   0.0310   0.0758
     0.0759   0.2276   0.2276   0.2621   0.4340   0.5225   0.5225   0.5570
     2.3729   2.5598   2.6249   2.6249   2.6746   2.7177   2.7177   2.8217
     2.8217   2.8315   2.8374   2.8374   2.8716   2.8716   3.0946   3.1001
     3.1157   3.1158   3.1196   3.1196   3.1236   3.1236   3.1313   3.1313
     3.1669   3.1679   3.1756   3.1756   3.2930   3.2930   3.3940   3.3940
     3.4725   3.4726   3.4894   3.4894   3.7517   3.7517   3.7635   3.7770
     3.7771   3.8883   3.8990   4.0801   4.2053   4.2053   4.2132   4.2132
     4.2219   4.2444   4.2444   4.5281

          k = 0.4417 0.3897 0.0000 (126387 PWs)   bands (ev):

   -60.2491 -60.2491 -60.2430 -60.2374 -60.2291 -60.2291 -60.2258 -60.2258
   -60.2236 -60.2236 -60.2198 -60.2198 -60.2174 -60.2174 -60.2152 -60.2143
   -34.5210 -34.5210 -34.5122 -34.5122 -34.4966 -34.4942 -34.4942 -34.4720
   -34.4575 -34.4575 -34.4224 -34.4224 -34.3969 -34.3706 -34.3705 -34.3602
   -34.3584 -34.3508 -34.3470 -34.3304 -34.3304 -34.3237 -34.3237 -34.3193
   -34.3193 -34.3115 -34.3115 -34.3081 -34.3081 -34.3067 -34.3067 -34.3023
   -34.3004 -34.2994 -34.2882 -34.2882 -34.2693 -34.2693 -34.2645 -34.2645
   -34.2586 -34.2586 -34.2414 -34.2414 -34.2345 -34.2161 -34.1985 -34.1984
   -13.1822 -13.1822 -12.9116 -12.6452 -12.2210 -12.2210 -12.0365 -12.0365
   -12.0123 -12.0123 -11.9034 -11.9034 -11.9017 -11.7927 -11.6707 -11.6707
   -11.6194 -11.6194 -11.5468 -11.5468 -11.5236 -11.5236 -11.5008 -11.5008
   -11.4021 -11.4021 -11.3924 -11.3386 -11.3385 -11.3351 -11.2673 -11.2345
    -4.7837  -4.7837  -4.7832  -4.7832  -4.7498  -4.7498  -4.6765  -4.6756
    -4.6756  -4.5492  -4.4932  -4.4932  -4.4261  -4.4235  -4.3255  -4.3255
    -4.2703  -4.2703  -4.2693  -4.1018  -4.0530  -4.0530  -3.7501  -3.7501
    -3.5682  -3.5682  -3.2830  -3.2830  -3.2672  -3.2672  -3.2637  -3.2637
    -3.2612  -3.2501  -3.2501  -3.2336  -3.1612  -3.1612  -3.1486  -3.1486
    -3.1067  -2.8648  -2.7752  -2.6432  -2.5317  -2.5317  -2.5185  -2.5185
    -2.5058  -2.5058  -2.4849  -2.4849  -2.4560  -2.4560  -2.3771  -2.3521
    -2.3521  -2.3329  -2.2861  -2.2596  -2.2286  -1.9328  -1.9328  -1.7900
    -1.7320  -1.7320  -1.4926  -1.4170  -1.4130  -1.4130  -1.3346  -1.3346
    -1.3331  -1.2946  -1.2414  -1.2414  -1.2150  -1.2150  -1.1533  -1.1533
    -1.1532  -1.1532  -1.0522  -1.0522  -1.0450  -1.0450  -0.7487  -0.7487
    -0.6456  -0.6456  -0.5163  -0.5163  -0.3995  -0.3995  -0.2977  -0.2743
    -0.2187  -0.2187  -0.1623  -0.1623  -0.1513  -0.1513   0.0228   0.0695
     0.0695   0.2325   0.2325   0.2709   0.4293   0.5215   0.5215   0.5613
     2.3669   2.5674   2.6222   2.6222   2.6697   2.7217   2.7218   2.8212
     2.8212   2.8344   2.8344   2.8384   2.8707   2.8707   3.0937   3.0991
     3.1168   3.1168   3.1194   3.1194   3.1240   3.1240   3.1296   3.1296
     3.1710   3.1726   3.1736   3.1736   3.2865   3.2865   3.3924   3.3924
     3.4636   3.4637   3.4972   3.4972   3.7603   3.7638   3.7638   3.7800
     3.7800   3.8799   3.9063   4.0858   4.2017   4.2017   4.2098   4.2104
     4.2104   4.2432   4.2432   4.5392

          k = 0.4375 0.3969 0.0000 (126367 PWs)   bands (ev):

   -60.2491 -60.2491 -60.2432 -60.2372 -60.2293 -60.2293 -60.2257 -60.2257
   -60.2236 -60.2236 -60.2199 -60.2199 -60.2174 -60.2173 -60.2152 -60.2142
   -34.5211 -34.5211 -34.5116 -34.5116 -34.4975 -34.4942 -34.4942 -34.4712
   -34.4588 -34.4588 -34.4212 -34.4212 -34.3981 -34.3705 -34.3705 -34.3588
   -34.3588 -34.3526 -34.3466 -34.3306 -34.3306 -34.3235 -34.3235 -34.3193
   -34.3193 -34.3117 -34.3117 -34.3088 -34.3088 -34.3066 -34.3066 -34.3024
   -34.3004 -34.2976 -34.2875 -34.2875 -34.2694 -34.2694 -34.2642 -34.2642
   -34.2589 -34.2589 -34.2417 -34.2417 -34.2352 -34.2155 -34.1986 -34.1986
   -13.1809 -13.1809 -12.9204 -12.6350 -12.2273 -12.2273 -12.0298 -12.0298
   -12.0117 -12.0117 -11.9053 -11.9026 -11.9026 -11.7886 -11.6773 -11.6773
   -11.6220 -11.6220 -11.5442 -11.5442 -11.5198 -11.5198 -11.5005 -11.5004
   -11.4048 -11.4048 -11.3948 -11.3368 -11.3368 -11.3335 -11.2687 -11.2337
    -4.7818  -4.7818  -4.7813  -4.7813  -4.7486  -4.7486  -4.6797  -4.6742
    -4.6742  -4.5436  -4.5004  -4.5004  -4.4373  -4.4305  -4.3211  -4.3211
    -4.2765  -4.2765  -4.2661  -4.0905  -4.0439  -4.0439  -3.7510  -3.7510
    -3.5781  -3.5781  -3.2837  -3.2837  -3.2659  -3.2629  -3.2629  -3.2561
    -3.2561  -3.2488  -3.2488  -3.2349  -3.1628  -3.1628  -3.1490  -3.1490
    -3.1123  -2.8539  -2.7864  -2.6550  -2.5329  -2.5329  -2.5177  -2.5177
    -2.5044  -2.5044  -2.4833  -2.4833  -2.4583  -2.4583  -2.3811  -2.3548
    -2.3548  -2.3218  -2.2647  -2.2558  -2.2428  -1.9346  -1.9346  -1.7742
    -1.7309  -1.7309  -1.4995  -1.4235  -1.4235  -1.4211  -1.3361  -1.3361
    -1.3295  -1.2906  -1.2462  -1.2462  -1.2079  -1.2079  -1.1564  -1.1564
    -1.1454  -1.1454  -1.0485  -1.0485  -1.0428  -1.0428  -0.7575  -0.7575
    -0.6551  -0.6551  -0.5092  -0.5092  -0.3968  -0.3968  -0.2999  -0.2749
    -0.2139  -0.2139  -0.1617  -0.1617  -0.1499  -0.1499   0.0146   0.0630
     0.0630   0.2374   0.2374   0.2796   0.4247   0.5205   0.5205   0.5656
     2.3610   2.5750   2.6196   2.6196   2.6648   2.7258   2.7258   2.8207
     2.8207   2.8313   2.8313   2.8454   2.8697   2.8697   3.0930   3.0983
     3.1178   3.1179   3.1193   3.1193   3.1244   3.1244   3.1278   3.1278
     3.1716   3.1716   3.1751   3.1774   3.2802   3.2802   3.3908   3.3908
     3.4549   3.4549   3.5049   3.5049   3.7573   3.7758   3.7758   3.7832
     3.7832   3.8715   3.9138   4.0915   4.1976   4.1980   4.1980   4.2075
     4.2075   4.2419   4.2419   4.5502

          k = 0.4333 0.4041 0.0000 (126343 PWs)   bands (ev):

   -60.2490 -60.2490 -60.2434 -60.2370 -60.2294 -60.2294 -60.2256 -60.2256
   -60.2236 -60.2236 -60.2200 -60.2200 -60.2173 -60.2173 -60.2153 -60.2142
   -34.5211 -34.5211 -34.5110 -34.5110 -34.4983 -34.4941 -34.4941 -34.4703
   -34.4602 -34.4602 -34.4201 -34.4201 -34.3992 -34.3704 -34.3704 -34.3591
   -34.3575 -34.3544 -34.3462 -34.3309 -34.3309 -34.3233 -34.3233 -34.3192
   -34.3192 -34.3119 -34.3119 -34.3095 -34.3095 -34.3065 -34.3065 -34.3025
   -34.3003 -34.2958 -34.2868 -34.2868 -34.2695 -34.2695 -34.2639 -34.2639
   -34.2591 -34.2591 -34.2420 -34.2420 -34.2360 -34.2149 -34.1987 -34.1987
   -13.1795 -13.1795 -12.9291 -12.6249 -12.2336 -12.2336 -12.0231 -12.0231
   -12.0112 -12.0112 -11.9088 -11.9017 -11.9017 -11.7844 -11.6840 -11.6840
   -11.6245 -11.6245 -11.5416 -11.5416 -11.5161 -11.5161 -11.5000 -11.5000
   -11.4076 -11.4076 -11.3972 -11.3351 -11.3351 -11.3320 -11.2701 -11.2328
    -4.7797  -4.7797  -4.7792  -4.7792  -4.7473  -4.7473  -4.6828  -4.6727
    -4.6727  -4.5379  -4.5078  -4.5077  -4.4485  -4.4375  -4.3168  -4.3168
    -4.2827  -4.2827  -4.2630  -4.0794  -4.0348  -4.0348  -3.7520  -3.7520
    -3.5879  -3.5879  -3.2844  -3.2844  -3.2709  -3.2620  -3.2620  -3.2475
    -3.2475  -3.2449  -3.2449  -3.2362  -3.1644  -3.1644  -3.1495  -3.1495
    -3.1177  -2.8430  -2.7969  -2.6670  -2.5340  -2.5340  -2.5167  -2.5167
    -2.5029  -2.5029  -2.4817  -2.4817  -2.4607  -2.4607  -2.3852  -2.3577
    -2.3577  -2.3106  -2.2568  -2.2520  -2.2432  -1.9365  -1.9365  -1.7584
    -1.7297  -1.7297  -1.5065  -1.4340  -1.4340  -1.4252  -1.3375  -1.3375
    -1.3262  -1.2866  -1.2511  -1.2511  -1.2007  -1.2007  -1.1596  -1.1596
    -1.1376  -1.1376  -1.0447  -1.0447  -1.0404  -1.0404  -0.7662  -0.7662
    -0.6650  -0.6650  -0.5022  -0.5022  -0.3939  -0.3939  -0.3023  -0.2757
    -0.2090  -0.2090  -0.1611  -0.1611  -0.1485  -0.1485   0.0066   0.0566
     0.0566   0.2422   0.2422   0.2882   0.4201   0.5194   0.5194   0.5697
     2.3553   2.5826   2.6171   2.6171   2.6601   2.7298   2.7298   2.8202
     2.8202   2.8282   2.8282   2.8525   2.8686   2.8686   3.0924   3.0976
     3.1190   3.1190   3.1191   3.1191   3.1249   3.1249   3.1258   3.1258
     3.1695   3.1695   3.1793   3.1824   3.2740   3.2740   3.3890   3.3890
     3.4464   3.4464   3.5126   3.5126   3.7545   3.7865   3.7865   3.7879
     3.7879   3.8630   3.9215   4.0969   4.1855   4.1941   4.1941   4.2043
     4.2043   4.2404   4.2404   4.5612

          k = 0.4292 0.4114 0.0000 (126327 PWs)   bands (ev):

   -60.2490 -60.2490 -60.2436 -60.2368 -60.2295 -60.2295 -60.2255 -60.2255
   -60.2236 -60.2236 -60.2201 -60.2201 -60.2172 -60.2172 -60.2153 -60.2142
   -34.5211 -34.5211 -34.5104 -34.5104 -34.4991 -34.4940 -34.4940 -34.4695
   -34.4615 -34.4615 -34.4189 -34.4189 -34.4003 -34.3704 -34.3704 -34.3595
   -34.3562 -34.3561 -34.3458 -34.3311 -34.3311 -34.3230 -34.3230 -34.3192
   -34.3192 -34.3121 -34.3121 -34.3102 -34.3102 -34.3064 -34.3064 -34.3026
   -34.3003 -34.2940 -34.2861 -34.2861 -34.2696 -34.2696 -34.2636 -34.2636
   -34.2594 -34.2594 -34.2423 -34.2423 -34.2367 -34.2144 -34.1988 -34.1988
   -13.1780 -13.1780 -12.9378 -12.6147 -12.2399 -12.2399 -12.0164 -12.0164
   -12.0106 -12.0106 -11.9124 -11.9009 -11.9008 -11.7803 -11.6907 -11.6907
   -11.6270 -11.6270 -11.5390 -11.5390 -11.5124 -11.5124 -11.4996 -11.4996
   -11.4104 -11.4104 -11.3997 -11.3334 -11.3334 -11.3306 -11.2715 -11.2320
    -4.7775  -4.7775  -4.7769  -4.7769  -4.7459  -4.7459  -4.6858  -4.6711
    -4.6711  -4.5322  -4.5151  -4.5151  -4.4596  -4.4446  -4.3127  -4.3127
    -4.2887  -4.2887  -4.2602  -4.0684  -4.0256  -4.0256  -3.7530  -3.7530
    -3.5977  -3.5977  -3.2851  -3.2851  -3.2763  -3.2610  -3.2610  -3.2462
    -3.2462  -3.2377  -3.2337  -3.2337  -3.1661  -3.1661  -3.1500  -3.1500
    -3.1227  -2.8319  -2.8068  -2.6791  -2.5350  -2.5350  -2.5156  -2.5156
    -2.5014  -2.5014  -2.4801  -2.4801  -2.4633  -2.4633  -2.3891  -2.3607
    -2.3607  -2.2995  -2.2707  -2.2484  -2.2215  -1.9385  -1.9385  -1.7426
    -1.7284  -1.7283  -1.5135  -1.4446  -1.4446  -1.4291  -1.3387  -1.3386
    -1.3231  -1.2827  -1.2564  -1.2564  -1.1933  -1.1933  -1.1626  -1.1626
    -1.1299  -1.1299  -1.0410  -1.0410  -1.0379  -1.0378  -0.7749  -0.7749
    -0.6753  -0.6753  -0.4953  -0.4953  -0.3910  -0.3910  -0.3048  -0.2765
    -0.2041  -0.2041  -0.1604  -0.1604  -0.1470  -0.1470  -0.0012   0.0501
     0.0501   0.2469   0.2469   0.2968   0.4156   0.5182   0.5182   0.5737
     2.3497   2.5901   2.6147   2.6147   2.6556   2.7338   2.7338   2.8196
     2.8196   2.8249   2.8249   2.8597   2.8673   2.8673   3.0919   3.0970
     3.1188   3.1188   3.1202   3.1202   3.1238   3.1238   3.1254   3.1254
     3.1673   3.1673   3.1837   3.1874   3.2680   3.2680   3.3871   3.3871
     3.4380   3.4380   3.5202   3.5202   3.7517   3.7900   3.7901   3.8001
     3.8001   3.8545   3.9293   4.1022   4.1734   4.1902   4.1902   4.2010
     4.2010   4.2387   4.2387   4.5721

          k = 0.4250 0.4186 0.0000 (126317 PWs)   bands (ev):

   -60.2490 -60.2490 -60.2438 -60.2366 -60.2296 -60.2296 -60.2254 -60.2254
   -60.2236 -60.2236 -60.2202 -60.2202 -60.2172 -60.2172 -60.2154 -60.2142
   -34.5211 -34.5211 -34.5097 -34.5097 -34.5000 -34.4939 -34.4939 -34.4687
   -34.4628 -34.4628 -34.4178 -34.4178 -34.4014 -34.3703 -34.3703 -34.3599
   -34.3580 -34.3547 -34.3454 -34.3313 -34.3313 -34.3228 -34.3228 -34.3192
   -34.3192 -34.3123 -34.3123 -34.3109 -34.3109 -34.3063 -34.3063 -34.3027
   -34.3002 -34.2923 -34.2854 -34.2854 -34.2696 -34.2696 -34.2634 -34.2634
   -34.2597 -34.2597 -34.2426 -34.2426 -34.2375 -34.2138 -34.1989 -34.1989
   -13.1765 -13.1765 -12.9464 -12.6045 -12.2461 -12.2461 -12.0099 -12.0099
   -12.0097 -12.0097 -11.9159 -11.8999 -11.8999 -11.7761 -11.6975 -11.6975
   -11.6295 -11.6295 -11.5364 -11.5364 -11.5089 -11.5089 -11.4991 -11.4991
   -11.4132 -11.4132 -11.4021 -11.3318 -11.3318 -11.3292 -11.2730 -11.2313
    -4.7751  -4.7751  -4.7746  -4.7746  -4.7445  -4.7445  -4.6887  -4.6694
    -4.6694  -4.5265  -4.5225  -4.5225  -4.4706  -4.4517  -4.3087  -4.3087
    -4.2946  -4.2946  -4.2576  -4.0575  -4.0163  -4.0163  -3.7541  -3.7541
    -3.6073  -3.6073  -3.2857  -3.2857  -3.2819  -3.2600  -3.2600  -3.2449
    -3.2449  -3.2391  -3.2226  -3.2226  -3.1678  -3.1678  -3.1505  -3.1505
    -3.1275  -2.8207  -2.8162  -2.6913  -2.5359  -2.5359  -2.5144  -2.5144
    -2.4999  -2.4999  -2.4785  -2.4785  -2.4661  -2.4661  -2.3931  -2.3638
    -2.3638  -2.2882  -2.2842  -2.2448  -2.1997  -1.9407  -1.9407  -1.7270
    -1.7270  -1.7269  -1.5205  -1.4553  -1.4553  -1.4330  -1.3397  -1.3397
    -1.3201  -1.2789  -1.2618  -1.2618  -1.1858  -1.1858  -1.1657  -1.1657
    -1.1224  -1.1224  -1.0373  -1.0373  -1.0352  -1.0352  -0.7835  -0.7835
    -0.6860  -0.6860  -0.4886  -0.4886  -0.3880  -0.3880  -0.3073  -0.2775
    -0.1991  -0.1991  -0.1596  -0.1596  -0.1455  -0.1455  -0.0089   0.0437
     0.0437   0.2515   0.2515   0.3053   0.4111   0.5170   0.5170   0.5776
     2.3443   2.5976   2.6124   2.6124   2.6511   2.7377   2.7378   2.8191
     2.8191   2.8217   2.8217   2.8658   2.8658   2.8669   3.0915   3.0966
     3.1186   3.1186   3.1214   3.1214   3.1216   3.1216   3.1259   3.1259
     3.1650   3.1650   3.1881   3.1926   3.2620   3.2620   3.3851   3.3851
     3.4299   3.4299   3.5277   3.5277   3.7491   3.7937   3.7937   3.8123
     3.8123   3.8459   3.9373   4.1073   4.1613   4.1862   4.1862   4.1974
     4.1974   4.2367   4.2367   4.5829

          k = 0.4208 0.4258 0.0000 (126345 PWs)   bands (ev):

   -60.2489 -60.2489 -60.2440 -60.2364 -60.2297 -60.2297 -60.2253 -60.2253
   -60.2236 -60.2236 -60.2203 -60.2203 -60.2171 -60.2171 -60.2154 -60.2141
   -34.5211 -34.5211 -34.5091 -34.5091 -34.5008 -34.4938 -34.4938 -34.4679
   -34.4641 -34.4641 -34.4167 -34.4167 -34.4025 -34.3702 -34.3702 -34.3603
   -34.3598 -34.3534 -34.3450 -34.3316 -34.3316 -34.3226 -34.3226 -34.3191
   -34.3191 -34.3126 -34.3126 -34.3116 -34.3116 -34.3062 -34.3062 -34.3027
   -34.3002 -34.2905 -34.2847 -34.2847 -34.2697 -34.2697 -34.2631 -34.2631
   -34.2601 -34.2601 -34.2430 -34.2430 -34.2382 -34.2132 -34.1990 -34.1990
   -13.1748 -13.1748 -12.9549 -12.5942 -12.2523 -12.2523 -12.0092 -12.0092
   -12.0030 -12.0030 -11.9194 -11.8989 -11.8989 -11.7719 -11.7044 -11.7044
   -11.6320 -11.6320 -11.5339 -11.5339 -11.5055 -11.5055 -11.4986 -11.4986
   -11.4161 -11.4161 -11.4046 -11.3302 -11.3302 -11.3279 -11.2744 -11.2305
    -4.7727  -4.7727  -4.7721  -4.7721  -4.7429  -4.7429  -4.6914  -4.6677
    -4.6677  -4.5300  -4.5300  -4.5207  -4.4816  -4.4588  -4.3048  -4.3048
    -4.3004  -4.3004  -4.2551  -4.0468  -4.0069  -4.0069  -3.7553  -3.7553
    -3.6169  -3.6169  -3.2878  -3.2862  -3.2862  -3.2589  -3.2589  -3.2436
    -3.2436  -3.2407  -3.2115  -3.2115  -3.1697  -3.1696  -3.1511  -3.1511
    -3.1320  -2.8249  -2.8095  -2.7037  -2.5367  -2.5367  -2.5131  -2.5131
    -2.4984  -2.4984  -2.4770  -2.4770  -2.4690  -2.4690  -2.3970  -2.3671
    -2.3671  -2.2976  -2.2770  -2.2414  -2.1778  -1.9430  -1.9430  -1.7255
    -1.7255  -1.7114  -1.5275  -1.4660  -1.4660  -1.4368  -1.3405  -1.3405
    -1.3175  -1.2751  -1.2674  -1.2674  -1.1780  -1.1780  -1.1687  -1.1686
    -1.1149  -1.1149  -1.0336  -1.0336  -1.0325  -1.0325  -0.7921  -0.7921
    -0.6969  -0.6969  -0.4821  -0.4821  -0.3850  -0.3850  -0.3100  -0.2786
    -0.1941  -0.1941  -0.1588  -0.1588  -0.1439  -0.1439  -0.0165   0.0372
     0.0372   0.2560   0.2560   0.3137   0.4066   0.5157   0.5157   0.5815
     2.3391   2.6051   2.6102   2.6103   2.6467   2.7417   2.7417   2.8184
     2.8184   2.8185   2.8185   2.8642   2.8642   2.8742   3.0913   3.0963
     3.1183   3.1183   3.1193   3.1193   3.1227   3.1227   3.1265   3.1265
     3.1627   3.1627   3.1926   3.1979   3.2562   3.2562   3.3831   3.3831
     3.4219   3.4219   3.5351   3.5351   3.7467   3.7975   3.7975   3.8245
     3.8245   3.8374   3.9454   4.1122   4.1492   4.1821   4.1821   4.1937
     4.1937   4.2345   4.2346   4.5937

          k = 0.4167 0.4330 0.0000 (126363 PWs)   bands (ev):

   -60.2489 -60.2489 -60.2442 -60.2362 -60.2298 -60.2298 -60.2252 -60.2251
   -60.2235 -60.2235 -60.2204 -60.2204 -60.2171 -60.2171 -60.2155 -60.2141
   -34.5210 -34.5210 -34.5084 -34.5084 -34.5016 -34.4937 -34.4937 -34.4671
   -34.4654 -34.4654 -34.4156 -34.4156 -34.4036 -34.3701 -34.3701 -34.3617
   -34.3607 -34.3520 -34.3445 -34.3318 -34.3318 -34.3223 -34.3223 -34.3191
   -34.3191 -34.3128 -34.3128 -34.3123 -34.3123 -34.3061 -34.3060 -34.3028
   -34.3001 -34.2887 -34.2840 -34.2840 -34.2698 -34.2698 -34.2628 -34.2628
   -34.2604 -34.2604 -34.2433 -34.2433 -34.2390 -34.2127 -34.1992 -34.1992
   -13.1730 -13.1730 -12.9634 -12.5839 -12.2585 -12.2585 -12.0085 -12.0085
   -11.9963 -11.9963 -11.9229 -11.8978 -11.8978 -11.7677 -11.7114 -11.7114
   -11.6345 -11.6345 -11.5313 -11.5313 -11.5021 -11.5021 -11.4981 -11.4980
   -11.4190 -11.4190 -11.4070 -11.3286 -11.3286 -11.3266 -11.2759 -11.2298
    -4.7701  -4.7701  -4.7695  -4.7695  -4.7413  -4.7413  -4.6941  -4.6658
    -4.6658  -4.5375  -4.5375  -4.5149  -4.4925  -4.4660  -4.3061  -4.3061
    -4.3010  -4.3010  -4.2529  -4.0363  -3.9975  -3.9975  -3.7565  -3.7565
    -3.6264  -3.6264  -3.2939  -3.2867  -3.2867  -3.2577  -3.2577  -3.2424
    -3.2424  -3.2423  -3.2004  -3.2004  -3.1716  -3.1716  -3.1517  -3.1517
    -3.1363  -2.8331  -2.7982  -2.7163  -2.5375  -2.5375  -2.5116  -2.5116
    -2.4969  -2.4969  -2.4755  -2.4755  -2.4720  -2.4720  -2.4008  -2.3705
    -2.3705  -2.3107  -2.2657  -2.2380  -2.1558  -1.9455  -1.9455  -1.7239
    -1.7239  -1.6958  -1.5346  -1.4768  -1.4768  -1.4404  -1.3412  -1.3412
    -1.3151  -1.2732  -1.2732  -1.2714  -1.1716  -1.1716  -1.1701  -1.1701
    -1.1075  -1.1075  -1.0299  -1.0299  -1.0296  -1.0296  -0.8007  -0.8007
    -0.7082  -0.7082  -0.4757  -0.4757  -0.3818  -0.3818  -0.3127  -0.2797
    -0.1890  -0.1890  -0.1580  -0.1580  -0.1422  -0.1422  -0.0240   0.0307
     0.0307   0.2604   0.2604   0.3221   0.4022   0.5143   0.5143   0.5852
     2.3340   2.6082   2.6082   2.6126   2.6425   2.7456   2.7456   2.8150
     2.8150   2.8180   2.8180   2.8625   2.8625   2.8816   3.0911   3.0961
     3.1169   3.1169   3.1181   3.1181   3.1240   3.1240   3.1272   3.1272
     3.1604   3.1604   3.1972   3.2033   3.2505   3.2505   3.3809   3.3809
     3.4141   3.4141   3.5425   3.5425   3.7444   3.8015   3.8015   3.8288
     3.8368   3.8368   3.9537   4.1170   4.1371   4.1779   4.1779   4.1898
     4.1898   4.2322   4.2322   4.6043

          k = 0.4125 0.4402 0.0000 (126371 PWs)   bands (ev):

   -60.2488 -60.2488 -60.2444 -60.2360 -60.2300 -60.2299 -60.2250 -60.2250
   -60.2235 -60.2235 -60.2205 -60.2205 -60.2170 -60.2170 -60.2155 -60.2141
   -34.5210 -34.5210 -34.5077 -34.5077 -34.5025 -34.4936 -34.4936 -34.4667
   -34.4667 -34.4663 -34.4145 -34.4145 -34.4046 -34.3700 -34.3700 -34.3635
   -34.3610 -34.3506 -34.3441 -34.3320 -34.3320 -34.3221 -34.3221 -34.3191
   -34.3191 -34.3130 -34.3130 -34.3130 -34.3129 -34.3060 -34.3059 -34.3029
   -34.3001 -34.2870 -34.2833 -34.2833 -34.2698 -34.2698 -34.2624 -34.2624
   -34.2608 -34.2607 -34.2437 -34.2437 -34.2398 -34.2121 -34.1993 -34.1993
   -13.1712 -13.1712 -12.9719 -12.5736 -12.2646 -12.2646 -12.0078 -12.0077
   -11.9897 -11.9896 -11.9263 -11.8967 -11.8967 -11.7634 -11.7185 -11.7185
   -11.6370 -11.6370 -11.5287 -11.5287 -11.4989 -11.4989 -11.4975 -11.4975
   -11.4219 -11.4219 -11.4095 -11.3271 -11.3271 -11.3254 -11.2773 -11.2291
    -4.7674  -4.7674  -4.7668  -4.7668  -4.7396  -4.7396  -4.6966  -4.6639
    -4.6639  -4.5451  -4.5451  -4.5090  -4.5033  -4.4732  -4.3116  -4.3116
    -4.2974  -4.2974  -4.2510  -4.0259  -3.9880  -3.9880  -3.7579  -3.7578
    -3.6358  -3.6358  -3.3003  -3.2872  -3.2872  -3.2565  -3.2565  -3.2439
    -3.2411  -3.2411  -3.1894  -3.1894  -3.1735  -3.1735  -3.1523  -3.1523
    -3.1402  -2.8406  -2.7868  -2.7290  -2.5381  -2.5381  -2.5101  -2.5101
    -2.4953  -2.4953  -2.4752  -2.4752  -2.4741  -2.4741  -2.4046  -2.3740
    -2.3740  -2.3236  -2.2544  -2.2347  -2.1336  -1.9481  -1.9481  -1.7223
    -1.7223  -1.6804  -1.5417  -1.4876  -1.4876  -1.4440  -1.3418  -1.3418
    -1.3129  -1.2792  -1.2792  -1.2678  -1.1744  -1.1744  -1.1621  -1.1621
    -1.1003  -1.1003  -1.0267  -1.0267  -1.0262  -1.0262  -0.8093  -0.8093
    -0.7198  -0.7198  -0.4694  -0.4694  -0.3787  -0.3787  -0.3156  -0.2810
    -0.1840  -0.1840  -0.1571  -0.1571  -0.1405  -0.1405  -0.0312   0.0242
     0.0242   0.2646   0.2647   0.3304   0.3978   0.5128   0.5128   0.5888
     2.3292   2.6062   2.6062   2.6200   2.6384   2.7495   2.7495   2.8116
     2.8116   2.8174   2.8174   2.8606   2.8606   2.8890   3.0911   3.0960
     3.1143   3.1143   3.1178   3.1178   3.1254   3.1254   3.1279   3.1279
     3.1580   3.1580   3.2019   3.2088   3.2450   3.2450   3.3787   3.3787
     3.4066   3.4066   3.5497   3.5497   3.7422   3.8056   3.8056   3.8202
     3.8491   3.8491   3.9621   4.1215   4.1250   4.1736   4.1736   4.1858
     4.1858   4.2296   4.2296   4.6149

          k = 0.4083 0.4474 0.0000 (126365 PWs)   bands (ev):

   -60.2488 -60.2488 -60.2445 -60.2357 -60.2301 -60.2301 -60.2249 -60.2249
   -60.2235 -60.2235 -60.2206 -60.2206 -60.2170 -60.2170 -60.2155 -60.2141
   -34.5209 -34.5209 -34.5070 -34.5070 -34.5033 -34.4935 -34.4935 -34.4680
   -34.4680 -34.4656 -34.4135 -34.4135 -34.4056 -34.3700 -34.3699 -34.3652
   -34.3614 -34.3493 -34.3437 -34.3323 -34.3323 -34.3219 -34.3219 -34.3190
   -34.3190 -34.3136 -34.3136 -34.3133 -34.3133 -34.3059 -34.3058 -34.3030
   -34.3000 -34.2852 -34.2826 -34.2826 -34.2699 -34.2699 -34.2621 -34.2621
   -34.2611 -34.2611 -34.2441 -34.2441 -34.2405 -34.2116 -34.1995 -34.1995
   -13.1693 -13.1692 -12.9802 -12.5633 -12.2707 -12.2707 -12.0070 -12.0070
   -11.9830 -11.9830 -11.9297 -11.8956 -11.8956 -11.7592 -11.7256 -11.7256
   -11.6394 -11.6394 -11.5262 -11.5262 -11.4969 -11.4969 -11.4958 -11.4958
   -11.4249 -11.4248 -11.4120 -11.3256 -11.3256 -11.3242 -11.2788 -11.2285
    -4.7645  -4.7645  -4.7639  -4.7639  -4.7379  -4.7379  -4.6990  -4.6618
    -4.6618  -4.5527  -4.5527  -4.5141  -4.5031  -4.4805  -4.3171  -4.3171
    -4.2940  -4.2940  -4.2492  -4.0158  -3.9785  -3.9785  -3.7592  -3.7592
    -3.6451  -3.6451  -3.3069  -3.2876  -3.2875  -3.2552  -3.2552  -3.2456
    -3.2399  -3.2399  -3.1785  -3.1784  -3.1756  -3.1756  -3.1529  -3.1529
    -3.1439  -2.8476  -2.7754  -2.7418  -2.5386  -2.5385  -2.5084  -2.5084
    -2.4937  -2.4937  -2.4786  -2.4786  -2.4726  -2.4726  -2.4084  -2.3776
    -2.3776  -2.3362  -2.2430  -2.2316  -2.1114  -1.9508  -1.9508  -1.7205
    -1.7205  -1.6650  -1.5487  -1.4985  -1.4985  -1.4474  -1.3422  -1.3422
    -1.3110  -1.2853  -1.2853  -1.2642  -1.1772  -1.1772  -1.1538  -1.1538
    -1.0931  -1.0931  -1.0236  -1.0236  -1.0225  -1.0225  -0.8178  -0.8178
    -0.7317  -0.7317  -0.4633  -0.4633  -0.3755  -0.3755  -0.3185  -0.2824
    -0.1790  -0.1790  -0.1561  -0.1561  -0.1387  -0.1387  -0.0383   0.0176
     0.0176   0.2688   0.2688   0.3386   0.3935   0.5112   0.5112   0.5922
     2.3245   2.6043   2.6043   2.6274   2.6345   2.7534   2.7534   2.8082
     2.8082   2.8169   2.8169   2.8586   2.8586   2.8965   3.0912   3.0961
     3.1116   3.1116   3.1175   3.1175   3.1268   3.1268   3.1287   3.1287
     3.1556   3.1556   3.2067   3.2143   3.2395   3.2395   3.3764   3.3764
     3.3992   3.3992   3.5568   3.5568   3.7401   3.8098   3.8098   3.8116
     3.8614   3.8614   3.9707   4.1129   4.1259   4.1693   4.1693   4.1815
     4.1815   4.2269   4.2269   4.6254

          k = 0.4042 0.4547 0.0000 (126381 PWs)   bands (ev):

   -60.2488 -60.2487 -60.2447 -60.2355 -60.2302 -60.2302 -60.2248 -60.2248
   -60.2235 -60.2235 -60.2208 -60.2208 -60.2169 -60.2169 -60.2156 -60.2141
   -34.5208 -34.5208 -34.5063 -34.5062 -34.5041 -34.4934 -34.4934 -34.4693
   -34.4693 -34.4648 -34.4124 -34.4124 -34.4066 -34.3699 -34.3699 -34.3670
   -34.3618 -34.3479 -34.3433 -34.3325 -34.3325 -34.3217 -34.3217 -34.3190
   -34.3190 -34.3143 -34.3143 -34.3135 -34.3135 -34.3058 -34.3057 -34.3031
   -34.3000 -34.2834 -34.2819 -34.2819 -34.2700 -34.2700 -34.2618 -34.2618
   -34.2615 -34.2615 -34.2446 -34.2446 -34.2413 -34.2111 -34.1996 -34.1996
   -13.1672 -13.1672 -12.9885 -12.5529 -12.2768 -12.2768 -12.0061 -12.0061
   -11.9763 -11.9763 -11.9331 -11.8944 -11.8944 -11.7550 -11.7328 -11.7328
   -11.6419 -11.6419 -11.5236 -11.5236 -11.4963 -11.4963 -11.4928 -11.4928
   -11.4278 -11.4278 -11.4145 -11.3242 -11.3242 -11.3231 -11.2803 -11.2279
    -4.7616  -4.7616  -4.7610  -4.7610  -4.7360  -4.7360  -4.7013  -4.6597
    -4.6597  -4.5604  -4.5604  -4.5248  -4.4972  -4.4877  -4.3224  -4.3224
    -4.2906  -4.2906  -4.2477  -4.0059  -3.9689  -3.9689  -3.7607  -3.7607
    -3.6543  -3.6543  -3.3135  -3.2879  -3.2879  -3.2539  -3.2539  -3.2474
    -3.2387  -3.2387  -3.1777  -3.1777  -3.1676  -3.1676  -3.1536  -3.1535
    -3.1473  -2.8541  -2.7639  -2.7549  -2.5389  -2.5389  -2.5066  -2.5066
    -2.4921  -2.4921  -2.4821  -2.4820  -2.4713  -2.4713  -2.4121  -2.3814
    -2.3814  -2.3485  -2.2315  -2.2286  -2.0891  -1.9538  -1.9538  -1.7187
    -1.7187  -1.6497  -1.5558  -1.5094  -1.5094  -1.4507  -1.3424  -1.3424
    -1.3093  -1.2915  -1.2915  -1.2607  -1.1799  -1.1799  -1.1455  -1.1455
    -1.0861  -1.0861  -1.0205  -1.0205  -1.0188  -1.0188  -0.8262  -0.8262
    -0.7438  -0.7438  -0.4574  -0.4574  -0.3723  -0.3723  -0.3216  -0.2839
    -0.1740  -0.1740  -0.1551  -0.1551  -0.1369  -0.1369  -0.0453   0.0111
     0.0111   0.2729   0.2729   0.3467   0.3892   0.5096   0.5096   0.5955
     2.3200   2.6026   2.6026   2.6307   2.6347   2.7572   2.7572   2.8047
     2.8048   2.8163   2.8163   2.8565   2.8565   2.9041   3.0914   3.0963
     3.1088   3.1089   3.1171   3.1171   3.1283   3.1283   3.1295   3.1295
     3.1532   3.1532   3.2116   3.2200   3.2342   3.2342   3.3740   3.3740
     3.3920   3.3920   3.5638   3.5638   3.7382   3.8029   3.8142   3.8142
     3.8737   3.8737   3.9794   4.1009   4.1301   4.1648   4.1648   4.1771
     4.1771   4.2239   4.2239   4.6358

          k = 0.4000 0.4619 0.0000 (126377 PWs)   bands (ev):

   -60.2487 -60.2487 -60.2449 -60.2353 -60.2303 -60.2303 -60.2247 -60.2247
   -60.2235 -60.2235 -60.2209 -60.2209 -60.2169 -60.2169 -60.2156 -60.2140
   -34.5207 -34.5207 -34.5055 -34.5055 -34.5049 -34.4933 -34.4933 -34.4706
   -34.4706 -34.4641 -34.4113 -34.4113 -34.4075 -34.3698 -34.3698 -34.3688
   -34.3621 -34.3466 -34.3429 -34.3327 -34.3327 -34.3214 -34.3214 -34.3189
   -34.3189 -34.3150 -34.3150 -34.3137 -34.3137 -34.3057 -34.3057 -34.3032
   -34.3000 -34.2817 -34.2812 -34.2812 -34.2700 -34.2700 -34.2619 -34.2619
   -34.2615 -34.2615 -34.2450 -34.2450 -34.2421 -34.2105 -34.1998 -34.1998
   -13.1651 -13.1651 -12.9968 -12.5425 -12.2828 -12.2828 -12.0053 -12.0053
   -11.9697 -11.9697 -11.9365 -11.8931 -11.8931 -11.7507 -11.7401 -11.7401
   -11.6443 -11.6443 -11.5211 -11.5211 -11.4957 -11.4957 -11.4899 -11.4899
   -11.4308 -11.4308 -11.4170 -11.3228 -11.3228 -11.3220 -11.2818 -11.2273
    -4.7585  -4.7585  -4.7579  -4.7579  -4.7341  -4.7341  -4.7035  -4.6575
    -4.6575  -4.5680  -4.5680  -4.5354  -4.4950  -4.4912  -4.3276  -4.3276
    -4.2874  -4.2874  -4.2463  -3.9963  -3.9592  -3.9592  -3.7622  -3.7622
    -3.6635  -3.6635  -3.3203  -3.2881  -3.2881  -3.2525  -3.2525  -3.2492
    -3.2375  -3.2375  -3.1799  -3.1799  -3.1567  -3.1567  -3.1542  -3.1542
    -3.1505  -2.8600  -2.7681  -2.7523  -2.5391  -2.5391  -2.5046  -2.5046
    -2.4905  -2.4905  -2.4857  -2.4857  -2.4700  -2.4700  -2.4157  -2.3852
    -2.3852  -2.3606  -2.2257  -2.2201  -2.0667  -1.9568  -1.9568  -1.7168
    -1.7168  -1.6345  -1.5629  -1.5204  -1.5204  -1.4539  -1.3425  -1.3425
    -1.3080  -1.2979  -1.2979  -1.2573  -1.1825  -1.1825  -1.1369  -1.1369
    -1.0791  -1.0791  -1.0172  -1.0172  -1.0152  -1.0152  -0.8346  -0.8346
    -0.7562  -0.7562  -0.4517  -0.4517  -0.3691  -0.3691  -0.3247  -0.2856
    -0.1691  -0.1691  -0.1541  -0.1541  -0.1350  -0.1350  -0.0520   0.0046
     0.0046   0.2769   0.2769   0.3547   0.3850   0.5079   0.5079   0.5987
     2.3158   2.6009   2.6009   2.6270   2.6419   2.7610   2.7610   2.8013
     2.8013   2.8158   2.8158   2.8543   2.8543   2.9118   3.0917   3.0966
     3.1059   3.1060   3.1168   3.1168   3.1298   3.1298   3.1305   3.1305
     3.1507   3.1508   3.2165   3.2257   3.2289   3.2290   3.3716   3.3716
     3.3851   3.3851   3.5707   3.5707   3.7364   3.7943   3.8187   3.8187
     3.8860   3.8860   3.9883   4.0889   4.1340   4.1603   4.1604   4.1725
     4.1725   4.2208   4.2208   4.6462

          k = 0.3958 0.4691 0.0000 (126409 PWs)   bands (ev):

   -60.2487 -60.2486 -60.2451 -60.2351 -60.2304 -60.2304 -60.2246 -60.2246
   -60.2234 -60.2234 -60.2210 -60.2210 -60.2168 -60.2168 -60.2157 -60.2140
   -34.5206 -34.5206 -34.5057 -34.5047 -34.5047 -34.4932 -34.4932 -34.4719
   -34.4719 -34.4634 -34.4103 -34.4103 -34.4084 -34.3706 -34.3697 -34.3697
   -34.3625 -34.3452 -34.3424 -34.3329 -34.3329 -34.3212 -34.3212 -34.3189
   -34.3189 -34.3157 -34.3157 -34.3140 -34.3140 -34.3056 -34.3056 -34.3033
   -34.2999 -34.2805 -34.2805 -34.2800 -34.2701 -34.2701 -34.2623 -34.2623
   -34.2611 -34.2611 -34.2455 -34.2455 -34.2429 -34.2100 -34.1999 -34.1999
   -13.1629 -13.1629 -13.0049 -12.5321 -12.2888 -12.2888 -12.0044 -12.0044
   -11.9630 -11.9630 -11.9398 -11.8918 -11.8918 -11.7475 -11.7475 -11.7464
   -11.6467 -11.6467 -11.5186 -11.5186 -11.4950 -11.4950 -11.4871 -11.4871
   -11.4338 -11.4338 -11.4195 -11.3214 -11.3214 -11.3210 -11.2832 -11.2267
    -4.7553  -4.7553  -4.7547  -4.7547  -4.7321  -4.7321  -4.7056  -4.6552
    -4.6552  -4.5758  -4.5758  -4.5460  -4.5022  -4.4852  -4.3327  -4.3326
    -4.2844  -4.2843  -4.2453  -3.9870  -3.9495  -3.9495  -3.7638  -3.7638
    -3.6725  -3.6725  -3.3271  -3.2883  -3.2883  -3.2511  -3.2511  -3.2510
    -3.2363  -3.2363  -3.1821  -3.1821  -3.1549  -3.1549  -3.1533  -3.1460
    -3.1460  -2.8653  -2.7815  -2.7407  -2.5392  -2.5392  -2.5026  -2.5026
    -2.4895  -2.4895  -2.4889  -2.4889  -2.4687  -2.4687  -2.4193  -2.3892
    -2.3892  -2.3724  -2.2229  -2.2086  -2.0442  -1.9601  -1.9601  -1.7148
    -1.7148  -1.6194  -1.5700  -1.5315  -1.5315  -1.4570  -1.3424  -1.3424
    -1.3069  -1.3044  -1.3044  -1.2539  -1.1851  -1.1851  -1.1283  -1.1282
    -1.0723  -1.0723  -1.0139  -1.0139  -1.0116  -1.0116  -0.8430  -0.8430
    -0.7689  -0.7689  -0.4461  -0.4461  -0.3659  -0.3659  -0.3279  -0.2873
    -0.1642  -0.1642  -0.1530  -0.1530  -0.1330  -0.1330  -0.0586  -0.0020
    -0.0020   0.2807   0.2807   0.3626   0.3808   0.5061   0.5061   0.6018
     2.3117   2.5994   2.5994   2.6235   2.6491   2.7647   2.7647   2.7978
     2.7978   2.8153   2.8153   2.8520   2.8520   2.9195   3.0921   3.0971
     3.1029   3.1029   3.1164   3.1164   3.1313   3.1313   3.1314   3.1314
     3.1483   3.1483   3.2215   3.2238   3.2238   3.2315   3.3691   3.3691
     3.3784   3.3784   3.5774   3.5774   3.7348   3.7857   3.8232   3.8233
     3.8984   3.8984   3.9973   4.0769   4.1378   4.1558   4.1558   4.1678
     4.1678   4.2175   4.2175   4.6564

          k = 0.3917 0.4763 0.0000 (126415 PWs)   bands (ev):

   -60.2486 -60.2486 -60.2453 -60.2349 -60.2305 -60.2305 -60.2245 -60.2245
   -60.2234 -60.2234 -60.2211 -60.2211 -60.2168 -60.2168 -60.2157 -60.2140
   -34.5205 -34.5205 -34.5065 -34.5039 -34.5039 -34.4931 -34.4931 -34.4732
   -34.4732 -34.4628 -34.4093 -34.4093 -34.4093 -34.3724 -34.3696 -34.3696
   -34.3629 -34.3439 -34.3420 -34.3332 -34.3332 -34.3210 -34.3210 -34.3188
   -34.3188 -34.3164 -34.3164 -34.3142 -34.3142 -34.3055 -34.3055 -34.3033
   -34.2999 -34.2799 -34.2798 -34.2782 -34.2701 -34.2701 -34.2628 -34.2628
   -34.2608 -34.2608 -34.2460 -34.2460 -34.2437 -34.2095 -34.2001 -34.2001
   -13.1606 -13.1606 -13.0130 -12.5217 -12.2947 -12.2947 -12.0034 -12.0034
   -11.9564 -11.9564 -11.9431 -11.8904 -11.8904 -11.7549 -11.7549 -11.7422
   -11.6492 -11.6492 -11.5161 -11.5161 -11.4943 -11.4943 -11.4844 -11.4843
   -11.4369 -11.4369 -11.4220 -11.3201 -11.3201 -11.3200 -11.2847 -11.2262
    -4.7519  -4.7519  -4.7514  -4.7514  -4.7300  -4.7300  -4.7075  -4.6528
    -4.6528  -4.5835  -4.5835  -4.5565  -4.5095  -4.4792  -4.3376  -4.3376
    -4.2814  -4.2814  -4.2444  -3.9780  -3.9397  -3.9397  -3.7655  -3.7655
    -3.6815  -3.6815  -3.3339  -3.2884  -3.2884  -3.2529  -3.2496  -3.2496
    -3.2352  -3.2352  -3.1845  -3.1845  -3.1559  -3.1556  -3.1556  -3.1354
    -3.1354  -2.8702  -2.7950  -2.7291  -2.5391  -2.5391  -2.5004  -2.5004
    -2.4934  -2.4934  -2.4873  -2.4872  -2.4674  -2.4674  -2.4228  -2.3932
    -2.3932  -2.3839  -2.2203  -2.1970  -2.0216  -1.9635  -1.9635  -1.7128
    -1.7127  -1.6043  -1.5771  -1.5426  -1.5425  -1.4598  -1.3422  -1.3422
    -1.3110  -1.3110  -1.3060  -1.2506  -1.1876  -1.1876  -1.1194  -1.1194
    -1.0656  -1.0656  -1.0106  -1.0106  -1.0080  -1.0079  -0.8513  -0.8513
    -0.7818  -0.7818  -0.4408  -0.4408  -0.3627  -0.3627  -0.3312  -0.2891
    -0.1593  -0.1593  -0.1518  -0.1518  -0.1311  -0.1311  -0.0650  -0.0085
    -0.0085   0.2844   0.2844   0.3705   0.3766   0.5042   0.5042   0.6046
     2.3079   2.5980   2.5980   2.6201   2.6563   2.7684   2.7684   2.7943
     2.7943   2.8148   2.8148   2.8496   2.8496   2.9274   3.0926   3.0977
     3.0998   3.0998   3.1160   3.1160   3.1325   3.1325   3.1328   3.1328
     3.1459   3.1459   3.2188   3.2188   3.2267   3.2374   3.3665   3.3665
     3.3719   3.3719   3.5840   3.5840   3.7332   3.7771   3.8279   3.8279
     3.9107   3.9107   4.0065   4.0649   4.1413   4.1511   4.1512   4.1629
     4.1629   4.2140   4.2140   4.6665

          k = 0.3875 0.4835 0.0000 (126409 PWs)   bands (ev):

   -60.2485 -60.2485 -60.2454 -60.2347 -60.2306 -60.2306 -60.2244 -60.2244
   -60.2234 -60.2234 -60.2212 -60.2212 -60.2167 -60.2167 -60.2158 -60.2140
   -34.5203 -34.5203 -34.5073 -34.5031 -34.5031 -34.4930 -34.4929 -34.4745
   -34.4745 -34.4621 -34.4101 -34.4083 -34.4083 -34.3741 -34.3694 -34.3694
   -34.3632 -34.3425 -34.3416 -34.3334 -34.3334 -34.3208 -34.3207 -34.3188
   -34.3188 -34.3171 -34.3171 -34.3145 -34.3145 -34.3054 -34.3054 -34.3034
   -34.2999 -34.2792 -34.2792 -34.2765 -34.2702 -34.2702 -34.2632 -34.2632
   -34.2605 -34.2604 -34.2465 -34.2465 -34.2445 -34.2090 -34.2003 -34.2003
   -13.1582 -13.1582 -13.0211 -12.5112 -12.3006 -12.3006 -12.0025 -12.0025
   -11.9498 -11.9498 -11.9464 -11.8890 -11.8890 -11.7624 -11.7624 -11.7379
   -11.6516 -11.6516 -11.5136 -11.5136 -11.4936 -11.4936 -11.4817 -11.4817
   -11.4400 -11.4400 -11.4245 -11.3191 -11.3188 -11.3188 -11.2862 -11.2257
    -4.7485  -4.7485  -4.7480  -4.7480  -4.7279  -4.7279  -4.7093  -4.6503
    -4.6503  -4.5913  -4.5913  -4.5669  -4.5168  -4.4732  -4.3424  -4.3424
    -4.2786  -4.2786  -4.2437  -3.9694  -3.9298  -3.9298  -3.7673  -3.7673
    -3.6904  -3.6904  -3.3406  -3.2885  -3.2885  -3.2548  -3.2480  -3.2480
    -3.2341  -3.2340  -3.1868  -3.1868  -3.1582  -3.1562  -3.1562  -3.1248
    -3.1248  -2.8746  -2.8088  -2.7173  -2.5388  -2.5388  -2.4981  -2.4981
    -2.4975  -2.4975  -2.4856  -2.4856  -2.4662  -2.4662  -2.4263  -2.3974
    -2.3974  -2.3951  -2.2178  -2.1854  -1.9990  -1.9671  -1.9671  -1.7106
    -1.7106  -1.5894  -1.5842  -1.5537  -1.5537  -1.4626  -1.3419  -1.3419
    -1.3176  -1.3176  -1.3055  -1.2474  -1.1900  -1.1900  -1.1105  -1.1105
    -1.0589  -1.0589  -1.0071  -1.0071  -1.0044  -1.0044  -0.8595  -0.8595
    -0.7949  -0.7949  -0.4356  -0.4356  -0.3596  -0.3596  -0.3346  -0.2911
    -0.1545  -0.1545  -0.1506  -0.1506  -0.1290  -0.1290  -0.0712  -0.0150
    -0.0150   0.2880   0.2880   0.3725   0.3782   0.5023   0.5023   0.6074
     2.3043   2.5967   2.5967   2.6169   2.6634   2.7720   2.7720   2.7908
     2.7908   2.8144   2.8144   2.8471   2.8471   2.9353   3.0932   3.0965
     3.0965   3.0984   3.1156   3.1156   3.1336   3.1336   3.1344   3.1344
     3.1436   3.1436   3.2139   3.2139   3.2318   3.2434   3.3638   3.3638
     3.3656   3.3656   3.5905   3.5905   3.7318   3.7685   3.8327   3.8327
     3.9230   3.9230   4.0158   4.0529   4.1446   4.1465   4.1465   4.1579
     4.1579   4.2103   4.2103   4.6766

          k = 0.3833 0.4907 0.0000 (126381 PWs)   bands (ev):

   -60.2485 -60.2485 -60.2456 -60.2345 -60.2307 -60.2307 -60.2242 -60.2242
   -60.2234 -60.2233 -60.2214 -60.2214 -60.2167 -60.2167 -60.2158 -60.2140
   -34.5201 -34.5201 -34.5080 -34.5023 -34.5023 -34.4928 -34.4928 -34.4758
   -34.4758 -34.4615 -34.4108 -34.4073 -34.4073 -34.3759 -34.3693 -34.3693
   -34.3636 -34.3412 -34.3412 -34.3336 -34.3336 -34.3205 -34.3205 -34.3187
   -34.3187 -34.3178 -34.3177 -34.3147 -34.3147 -34.3053 -34.3053 -34.3035
   -34.2999 -34.2785 -34.2785 -34.2748 -34.2702 -34.2702 -34.2637 -34.2637
   -34.2601 -34.2601 -34.2470 -34.2470 -34.2453 -34.2085 -34.2004 -34.2004
   -13.1558 -13.1558 -13.0291 -12.5007 -12.3065 -12.3065 -12.0014 -12.0014
   -11.9497 -11.9432 -11.9432 -11.8875 -11.8875 -11.7700 -11.7700 -11.7336
   -11.6540 -11.6539 -11.5111 -11.5111 -11.4928 -11.4928 -11.4792 -11.4792
   -11.4431 -11.4431 -11.4270 -11.3183 -11.3176 -11.3175 -11.2877 -11.2253
    -4.7449  -4.7449  -4.7445  -4.7445  -4.7257  -4.7257  -4.7110  -4.6478
    -4.6478  -4.5991  -4.5991  -4.5772  -4.5241  -4.4671  -4.3471  -4.3471
    -4.2760  -4.2760  -4.2433  -3.9612  -3.9199  -3.9199  -3.7691  -3.7691
    -3.6991  -3.6991  -3.3473  -3.2885  -3.2885  -3.2568  -3.2464  -3.2464
    -3.2330  -3.2330  -3.1893  -3.1893  -3.1603  -3.1569  -3.1569  -3.1144
    -3.1144  -2.8785  -2.8227  -2.7056  -2.5383  -2.5383  -2.5018  -2.5018
    -2.4956  -2.4956  -2.4840  -2.4840  -2.4651  -2.4651  -2.4297  -2.4060
    -2.4016  -2.4016  -2.2154  -2.1737  -1.9763  -1.9708  -1.9708  -1.7083
    -1.7083  -1.5913  -1.5746  -1.5649  -1.5649  -1.4652  -1.3414  -1.3414
    -1.3244  -1.3244  -1.3053  -1.2443  -1.1923  -1.1923  -1.1013  -1.1013
    -1.0524  -1.0524  -1.0036  -1.0036  -1.0008  -1.0008  -0.8677  -0.8677
    -0.8083  -0.8083  -0.4306  -0.4306  -0.3565  -0.3565  -0.3381  -0.2931
    -0.1498  -0.1498  -0.1494  -0.1494  -0.1269  -0.1269  -0.0772  -0.0216
    -0.0216   0.2915   0.2915   0.3684   0.3858   0.5002   0.5002   0.6099
     2.3009   2.5955   2.5955   2.6138   2.6704   2.7755   2.7755   2.7874
     2.7874   2.8140   2.8140   2.8445   2.8446   2.9432   3.0932   3.0932
     3.0939   3.0992   3.1151   3.1151   3.1348   3.1348   3.1360   3.1360
     3.1412   3.1412   3.2091   3.2091   3.2371   3.2494   3.3595   3.3595
     3.3611   3.3611   3.5968   3.5968   3.7305   3.7599   3.8376   3.8376
     3.9354   3.9354   4.0252   4.0410   4.1417   4.1417   4.1477   4.1527
     4.1527   4.2065   4.2065   4.6865

          k = 0.3792 0.4980 0.0000 (126369 PWs)   bands (ev):

   -60.2484 -60.2484 -60.2458 -60.2343 -60.2308 -60.2308 -60.2241 -60.2241
   -60.2233 -60.2233 -60.2215 -60.2215 -60.2167 -60.2167 -60.2158 -60.2140
   -34.5200 -34.5199 -34.5088 -34.5014 -34.5014 -34.4927 -34.4927 -34.4771
   -34.4771 -34.4609 -34.4116 -34.4063 -34.4063 -34.3776 -34.3692 -34.3692
   -34.3639 -34.3408 -34.3399 -34.3338 -34.3338 -34.3203 -34.3203 -34.3187
   -34.3187 -34.3184 -34.3184 -34.3150 -34.3150 -34.3052 -34.3052 -34.3036
   -34.2998 -34.2778 -34.2778 -34.2731 -34.2702 -34.2702 -34.2642 -34.2642
   -34.2597 -34.2597 -34.2476 -34.2476 -34.2461 -34.2080 -34.2006 -34.2006
   -13.1532 -13.1532 -13.0370 -12.4902 -12.3124 -12.3124 -12.0004 -12.0004
   -11.9529 -11.9367 -11.9367 -11.8860 -11.8860 -11.7777 -11.7776 -11.7293
   -11.6563 -11.6563 -11.5086 -11.5086 -11.4921 -11.4921 -11.4768 -11.4768
   -11.4462 -11.4462 -11.4296 -11.3175 -11.3163 -11.3163 -11.2892 -11.2249
    -4.7413  -4.7413  -4.7409  -4.7409  -4.7234  -4.7234  -4.7125  -4.6451
    -4.6451  -4.6069  -4.6069  -4.5875  -4.5314  -4.4610  -4.3517  -4.3517
    -4.2734  -4.2734  -4.2431  -3.9534  -3.9100  -3.9100  -3.7710  -3.7710
    -3.7078  -3.7078  -3.3537  -3.2884  -3.2884  -3.2587  -3.2447  -3.2447
    -3.2319  -3.2319  -3.1918  -3.1918  -3.1620  -3.1576  -3.1576  -3.1041
    -3.1041  -2.8821  -2.8368  -2.6938  -2.5377  -2.5377  -2.5061  -2.5061
    -2.4930  -2.4930  -2.4824  -2.4824  -2.4640  -2.4640  -2.4331  -2.4166
    -2.4059  -2.4059  -2.2133  -2.1620  -1.9747  -1.9747  -1.9536  -1.7060
    -1.7060  -1.5983  -1.5761  -1.5761  -1.5599  -1.4676  -1.3408  -1.3408
    -1.3312  -1.3311  -1.3053  -1.2412  -1.1946  -1.1945  -1.0921  -1.0921
    -1.0460  -1.0460  -1.0001  -1.0001  -0.9972  -0.9972  -0.8758  -0.8758
    -0.8218  -0.8218  -0.4258  -0.4258  -0.3535  -0.3535  -0.3417  -0.2953
    -0.1481  -0.1481  -0.1451  -0.1451  -0.1248  -0.1248  -0.0830  -0.0281
    -0.0281   0.2949   0.2949   0.3644   0.3934   0.4981   0.4981   0.6123
     2.2978   2.5944   2.5944   2.6110   2.6773   2.7790   2.7790   2.7839
     2.7839   2.8136   2.8136   2.8419   2.8419   2.9513   3.0897   3.0897
     3.0947   3.1002   3.1147   3.1147   3.1361   3.1361   3.1376   3.1376
     3.1389   3.1389   3.2043   3.2043   3.2424   3.2555   3.3537   3.3537
     3.3584   3.3584   3.6030   3.6030   3.7293   3.7513   3.8426   3.8426
     3.9477   3.9477   4.0292   4.0348   4.1369   4.1369   4.1474   4.1474
     4.1506   4.2025   4.2025   4.6964

          k = 0.3750 0.5052 0.0000 (126387 PWs)   bands (ev):

   -60.2484 -60.2484 -60.2460 -60.2341 -60.2310 -60.2310 -60.2240 -60.2240
   -60.2233 -60.2233 -60.2216 -60.2216 -60.2166 -60.2166 -60.2159 -60.2140
   -34.5198 -34.5197 -34.5096 -34.5006 -34.5006 -34.4926 -34.4926 -34.4784
   -34.4784 -34.4604 -34.4123 -34.4053 -34.4053 -34.3794 -34.3691 -34.3691
   -34.3643 -34.3404 -34.3385 -34.3341 -34.3341 -34.3201 -34.3201 -34.3191
   -34.3191 -34.3186 -34.3186 -34.3152 -34.3152 -34.3052 -34.3052 -34.3037
   -34.2998 -34.2771 -34.2771 -34.2714 -34.2703 -34.2703 -34.2647 -34.2647
   -34.2594 -34.2594 -34.2482 -34.2482 -34.2469 -34.2075 -34.2008 -34.2008
   -13.1506 -13.1506 -13.0448 -12.4797 -12.3182 -12.3181 -11.9993 -11.9993
   -11.9561 -11.9301 -11.9301 -11.8844 -11.8844 -11.7854 -11.7854 -11.7250
   -11.6587 -11.6587 -11.5061 -11.5061 -11.4913 -11.4913 -11.4745 -11.4745
   -11.4493 -11.4493 -11.4321 -11.3168 -11.3152 -11.3152 -11.2907 -11.2245
    -4.7375  -4.7375  -4.7372  -4.7372  -4.7210  -4.7210  -4.7139  -4.6424
    -4.6424  -4.6148  -4.6148  -4.5977  -4.5387  -4.4549  -4.3561  -4.3561
    -4.2711  -4.2710  -4.2431  -3.9462  -3.8999  -3.8999  -3.7730  -3.7730
    -3.7164  -3.7164  -3.3598  -3.2882  -3.2882  -3.2607  -3.2430  -3.2430
    -3.2309  -3.2309  -3.1943  -3.1943  -3.1635  -3.1583  -3.1583  -3.0940
    -3.0940  -2.8852  -2.8511  -2.6820  -2.5368  -2.5368  -2.5107  -2.5107
    -2.4903  -2.4903  -2.4808  -2.4808  -2.4630  -2.4630  -2.4364  -2.4270
    -2.4102  -2.4102  -2.2112  -2.1503  -1.9788  -1.9788  -1.9308  -1.7036
    -1.7036  -1.6054  -1.5873  -1.5873  -1.5453  -1.4698  -1.3401  -1.3401
    -1.3380  -1.3380  -1.3057  -1.2382  -1.1967  -1.1967  -1.0827  -1.0827
    -1.0398  -1.0398  -0.9965  -0.9965  -0.9937  -0.9937  -0.8838  -0.8838
    -0.8356  -0.8356  -0.4212  -0.4212  -0.3505  -0.3505  -0.3453  -0.2976
    -0.1468  -0.1468  -0.1405  -0.1405  -0.1226  -0.1226  -0.0886  -0.0346
    -0.0346   0.2981   0.2981   0.3604   0.4008   0.4959   0.4959   0.6145
     2.2950   2.5935   2.5935   2.6082   2.6842   2.7804   2.7804   2.7824
     2.7824   2.8132   2.8132   2.8393   2.8393   2.9594   3.0861   3.0861
     3.0956   3.1013   3.1142   3.1142   3.1367   3.1367   3.1375   3.1375
     3.1393   3.1393   3.1997   3.1997   3.2478   3.2617   3.3481   3.3481
     3.3556   3.3556   3.6090   3.6090   3.7282   3.7428   3.8476   3.8476
     3.9600   3.9600   4.0173   4.0446   4.1320   4.1320   4.1419   4.1419
     4.1532   4.1983   4.1983   4.7062

          k = 0.3708 0.5124 0.0000 (126379 PWs)   bands (ev):

   -60.2483 -60.2483 -60.2462 -60.2339 -60.2311 -60.2311 -60.2239 -60.2239
   -60.2233 -60.2233 -60.2218 -60.2217 -60.2166 -60.2166 -60.2159 -60.2139
   -34.5195 -34.5195 -34.5104 -34.4997 -34.4997 -34.4924 -34.4924 -34.4797
   -34.4797 -34.4599 -34.4129 -34.4044 -34.4044 -34.3811 -34.3690 -34.3690
   -34.3646 -34.3399 -34.3372 -34.3343 -34.3343 -34.3199 -34.3199 -34.3198
   -34.3198 -34.3185 -34.3185 -34.3155 -34.3155 -34.3051 -34.3051 -34.3038
   -34.2998 -34.2764 -34.2764 -34.2703 -34.2703 -34.2697 -34.2652 -34.2652
   -34.2590 -34.2590 -34.2488 -34.2488 -34.2477 -34.2070 -34.2010 -34.2010
   -13.1478 -13.1478 -13.0526 -12.4692 -12.3239 -12.3239 -11.9982 -11.9982
   -11.9593 -11.9236 -11.9236 -11.8828 -11.8828 -11.7931 -11.7931 -11.7206
   -11.6610 -11.6610 -11.5036 -11.5036 -11.4905 -11.4905 -11.4724 -11.4723
   -11.4525 -11.4525 -11.4346 -11.3161 -11.3141 -11.3140 -11.2922 -11.2241
    -4.7336  -4.7336  -4.7333  -4.7333  -4.7186  -4.7186  -4.7152  -4.6396
    -4.6396  -4.6227  -4.6227  -4.6078  -4.5460  -4.4488  -4.3604  -4.3604
    -4.2688  -4.2688  -4.2433  -3.9394  -3.8899  -3.8899  -3.7750  -3.7750
    -3.7249  -3.7249  -3.3657  -3.2879  -3.2879  -3.2628  -3.2412  -3.2412
    -3.2299  -3.2299  -3.1969  -3.1969  -3.1648  -3.1590  -3.1590  -3.0840
    -3.0840  -2.8879  -2.8655  -2.6702  -2.5358  -2.5358  -2.5153  -2.5153
    -2.4875  -2.4874  -2.4792  -2.4792  -2.4620  -2.4620  -2.4397  -2.4370
    -2.4146  -2.4146  -2.2094  -2.1385  -1.9831  -1.9831  -1.9080  -1.7011
    -1.7011  -1.6124  -1.5986  -1.5986  -1.5308  -1.4718  -1.3448  -1.3448
    -1.3392  -1.3392  -1.3064  -1.2353  -1.1988  -1.1988  -1.0732  -1.0732
    -1.0336  -1.0336  -0.9928  -0.9928  -0.9901  -0.9901  -0.8917  -0.8917
    -0.8495  -0.8495  -0.4168  -0.4168  -0.3491  -0.3476  -0.3476  -0.2999
    -0.1455  -0.1455  -0.1360  -0.1360  -0.1204  -0.1204  -0.0939  -0.0411
    -0.0411   0.3012   0.3012   0.3565   0.4081   0.4936   0.4936   0.6165
     2.2923   2.5927   2.5927   2.6057   2.6910   2.7770   2.7770   2.7857
     2.7857   2.8129   2.8129   2.8366   2.8366   2.9677   3.0825   3.0825
     3.0965   3.1025   3.1136   3.1136   3.1345   3.1345   3.1390   3.1390
     3.1409   3.1409   3.1951   3.1951   3.2533   3.2678   3.3427   3.3427
     3.3527   3.3527   3.6148   3.6148   3.7273   3.7342   3.8528   3.8528
     3.9723   3.9723   4.0055   4.0544   4.1271   4.1271   4.1363   4.1363
     4.1557   4.1940   4.1940   4.7158

          k = 0.3667 0.5196 0.0000 (126405 PWs)   bands (ev):

   -60.2482 -60.2482 -60.2463 -60.2337 -60.2312 -60.2312 -60.2238 -60.2238
   -60.2232 -60.2232 -60.2219 -60.2219 -60.2166 -60.2165 -60.2160 -60.2139
   -34.5193 -34.5193 -34.5111 -34.4988 -34.4988 -34.4923 -34.4923 -34.4810
   -34.4810 -34.4595 -34.4134 -34.4034 -34.4034 -34.3828 -34.3688 -34.3688
   -34.3650 -34.3395 -34.3359 -34.3345 -34.3345 -34.3204 -34.3204 -34.3196
   -34.3196 -34.3185 -34.3185 -34.3158 -34.3157 -34.3050 -34.3050 -34.3039
   -34.2998 -34.2758 -34.2758 -34.2703 -34.2703 -34.2681 -34.2657 -34.2657
   -34.2586 -34.2586 -34.2494 -34.2494 -34.2485 -34.2065 -34.2012 -34.2012
   -13.1450 -13.1450 -13.0603 -12.4586 -12.3296 -12.3296 -11.9971 -11.9970
   -11.9624 -11.9171 -11.9171 -11.8811 -11.8811 -11.8010 -11.8010 -11.7163
   -11.6634 -11.6634 -11.5012 -11.5012 -11.4896 -11.4896 -11.4703 -11.4703
   -11.4557 -11.4557 -11.4371 -11.3156 -11.3130 -11.3130 -11.2937 -11.2238
    -4.7296  -4.7296  -4.7294  -4.7294  -4.7164  -4.7161  -4.7161  -4.6367
    -4.6367  -4.6306  -4.6305  -4.6178  -4.5533  -4.4426  -4.3646  -4.3646
    -4.2667  -4.2667  -4.2438  -3.9332  -3.8798  -3.8798  -3.7772  -3.7772
    -3.7334  -3.7334  -3.3711  -3.2876  -3.2876  -3.2648  -3.2393  -3.2393
    -3.2289  -3.2289  -3.1996  -3.1996  -3.1657  -3.1597  -3.1596  -3.0741
    -3.0741  -2.8902  -2.8802  -2.6584  -2.5345  -2.5345  -2.5201  -2.5201
    -2.4845  -2.4845  -2.4776  -2.4776  -2.4611  -2.4611  -2.4468  -2.4428
    -2.4191  -2.4191  -2.2077  -2.1266  -1.9876  -1.9876  -1.8851  -1.6985
    -1.6985  -1.6194  -1.6099  -1.6099  -1.5165  -1.4737  -1.3517  -1.3517
    -1.3383  -1.3382  -1.3073  -1.2325  -1.2007  -1.2007  -1.0636  -1.0636
    -1.0275  -1.0275  -0.9892  -0.9891  -0.9866  -0.9866  -0.8996  -0.8996
    -0.8637  -0.8637  -0.4126  -0.4126  -0.3529  -0.3448  -0.3448  -0.3024
    -0.1441  -0.1441  -0.1315  -0.1315  -0.1182  -0.1182  -0.0991  -0.0476
    -0.0476   0.3041   0.3041   0.3526   0.4154   0.4913   0.4913   0.6183
     2.2900   2.5920   2.5920   2.6033   2.6977   2.7736   2.7736   2.7890
     2.7890   2.8126   2.8126   2.8338   2.8338   2.9760   3.0787   3.0787
     3.0975   3.1039   3.1131   3.1131   3.1324   3.1324   3.1405   3.1405
     3.1426   3.1426   3.1906   3.1906   3.2589   3.2741   3.3376   3.3376
     3.3498   3.3498   3.6205   3.6205   3.7257   3.7264   3.8580   3.8580
     3.9845   3.9845   3.9938   4.0645   4.1222   4.1222   4.1306   4.1306
     4.1578   4.1895   4.1895   4.7254

          k = 0.3625 0.5268 0.0000 (126391 PWs)   bands (ev):

   -60.2482 -60.2482 -60.2465 -60.2335 -60.2313 -60.2313 -60.2237 -60.2237
   -60.2232 -60.2232 -60.2220 -60.2220 -60.2165 -60.2165 -60.2160 -60.2139
   -34.5191 -34.5191 -34.5119 -34.4979 -34.4979 -34.4921 -34.4921 -34.4822
   -34.4822 -34.4591 -34.4140 -34.4025 -34.4025 -34.3846 -34.3687 -34.3687
   -34.3653 -34.3391 -34.3347 -34.3347 -34.3346 -34.3211 -34.3211 -34.3194
   -34.3194 -34.3184 -34.3184 -34.3160 -34.3160 -34.3049 -34.3049 -34.3040
   -34.2998 -34.2751 -34.2751 -34.2704 -34.2704 -34.2664 -34.2662 -34.2662
   -34.2582 -34.2582 -34.2500 -34.2500 -34.2494 -34.2060 -34.2014 -34.2014
   -13.1421 -13.1421 -13.0679 -12.4481 -12.3353 -12.3353 -11.9959 -11.9959
   -11.9655 -11.9106 -11.9106 -11.8794 -11.8794 -11.8089 -11.8089 -11.7120
   -11.6657 -11.6657 -11.4987 -11.4987 -11.4888 -11.4888 -11.4683 -11.4683
   -11.4589 -11.4589 -11.4396 -11.3150 -11.3119 -11.3119 -11.2952 -11.2235
    -4.7255  -4.7254  -4.7254  -4.7254  -4.7174  -4.7135  -4.7135  -4.6384
    -4.6384  -4.6337  -4.6337  -4.6277  -4.5605  -4.4365  -4.3687  -4.3687
    -4.2647  -4.2647  -4.2444  -3.9276  -3.8696  -3.8696  -3.7794  -3.7794
    -3.7417  -3.7417  -3.3761  -3.2872  -3.2872  -3.2669  -3.2374  -3.2374
    -3.2280  -3.2280  -3.2023  -3.2023  -3.1664  -3.1603  -3.1603  -3.0645
    -3.0645  -2.8950  -2.8922  -2.6465  -2.5330  -2.5330  -2.5251  -2.5251
    -2.4813  -2.4813  -2.4761  -2.4761  -2.4602  -2.4602  -2.4562  -2.4460
    -2.4236  -2.4235  -2.2062  -2.1147  -1.9922  -1.9922  -1.8622  -1.6958
    -1.6958  -1.6264  -1.6213  -1.6213  -1.5022  -1.4753  -1.3586  -1.3586
    -1.3372  -1.3372  -1.3086  -1.2298  -1.2026  -1.2026  -1.0539  -1.0539
    -1.0216  -1.0216  -0.9855  -0.9854  -0.9831  -0.9831  -0.9073  -0.9073
    -0.8780  -0.8780  -0.4086  -0.4086  -0.3569  -0.3421  -0.3421  -0.3050
    -0.1427  -0.1427  -0.1272  -0.1272  -0.1159  -0.1159  -0.1040  -0.0541
    -0.0541   0.3070   0.3070   0.3487   0.4225   0.4888   0.4888   0.6200
     2.2879   2.5914   2.5914   2.6011   2.7043   2.7703   2.7703   2.7922
     2.7922   2.8124   2.8124   2.8311   2.8311   2.9843   3.0748   3.0748
     3.0986   3.1054   3.1125   3.1125   3.1304   3.1304   3.1422   3.1422
     3.1443   3.1443   3.1861   3.1861   3.2645   3.2804   3.3327   3.3327
     3.3468   3.3468   3.6260   3.6260   3.7173   3.7257   3.8632   3.8632
     3.9821   3.9968   3.9968   4.0746   4.1172   4.1172   4.1248   4.1248
     4.1598   4.1849   4.1849   4.7348

          k = 0.3583 0.5340 0.0000 (126387 PWs)   bands (ev):

   -60.2481 -60.2481 -60.2467 -60.2333 -60.2314 -60.2314 -60.2236 -60.2236
   -60.2232 -60.2232 -60.2221 -60.2221 -60.2165 -60.2165 -60.2161 -60.2139
   -34.5188 -34.5188 -34.5126 -34.4969 -34.4969 -34.4920 -34.4920 -34.4835
   -34.4835 -34.4587 -34.4144 -34.4016 -34.4016 -34.3863 -34.3686 -34.3686
   -34.3657 -34.3387 -34.3349 -34.3349 -34.3333 -34.3218 -34.3217 -34.3192
   -34.3192 -34.3184 -34.3184 -34.3163 -34.3163 -34.3049 -34.3049 -34.3040
   -34.2997 -34.2744 -34.2744 -34.2704 -34.2704 -34.2668 -34.2668 -34.2647
   -34.2578 -34.2578 -34.2507 -34.2507 -34.2502 -34.2056 -34.2016 -34.2016
   -13.1391 -13.1391 -13.0755 -12.4375 -12.3409 -12.3409 -11.9946 -11.9946
   -11.9686 -11.9041 -11.9041 -11.8776 -11.8776 -11.8169 -11.8169 -11.7076
   -11.6680 -11.6680 -11.4963 -11.4963 -11.4879 -11.4879 -11.4664 -11.4664
   -11.4622 -11.4622 -11.4422 -11.3146 -11.3109 -11.3109 -11.2967 -11.2233
    -4.7213  -4.7213  -4.7212  -4.7212  -4.7183  -4.7109  -4.7109  -4.6464
    -4.6463  -4.6376  -4.6307  -4.6307  -4.5678  -4.4303  -4.3726  -4.3726
    -4.2628  -4.2628  -4.2453  -3.9226  -3.8594  -3.8594  -3.7817  -3.7817
    -3.7499  -3.7499  -3.3806  -3.2867  -3.2867  -3.2690  -3.2355  -3.2355
    -3.2271  -3.2271  -3.2050  -3.2050  -3.1669  -3.1610  -3.1610  -3.0550
    -3.0550  -2.9099  -2.8939  -2.6346  -2.5312  -2.5312  -2.5301  -2.5301
    -2.4781  -2.4781  -2.4745  -2.4745  -2.4654  -2.4594  -2.4594  -2.4490
    -2.4281  -2.4281  -2.2049  -2.1028  -1.9970  -1.9970  -1.8392  -1.6930
    -1.6930  -1.6334  -1.6326  -1.6326  -1.4881  -1.4768  -1.3655  -1.3654
    -1.3360  -1.3360  -1.3102  -1.2271  -1.2044  -1.2044  -1.0441  -1.0441
    -1.0157  -1.0157  -0.9817  -0.9817  -0.9797  -0.9797  -0.9150  -0.9150
    -0.8925  -0.8925  -0.4048  -0.4048  -0.3609  -0.3395  -0.3395  -0.3078
    -0.1412  -0.1412  -0.1229  -0.1229  -0.1135  -0.1135  -0.1087  -0.0606
    -0.0606   0.3097   0.3097   0.3449   0.4295   0.4863   0.4863   0.6214
     2.2860   2.5910   2.5910   2.5991   2.7109   2.7669   2.7669   2.7953
     2.7953   2.8122   2.8122   2.8283   2.8283   2.9928   3.0708   3.0709
     3.0997   3.1070   3.1120   3.1120   3.1285   3.1285   3.1439   3.1439
     3.1460   3.1460   3.1818   3.1818   3.2701   3.2867   3.3281   3.3281
     3.3439   3.3439   3.6313   3.6313   3.7088   3.7251   3.8686   3.8686
     3.9704   4.0089   4.0089   4.0849   4.1121   4.1121   4.1188   4.1188
     4.1614   4.1801   4.1801   4.7442

          k = 0.3542 0.5413 0.0000 (126379 PWs)   bands (ev):

   -60.2480 -60.2480 -60.2468 -60.2330 -60.2315 -60.2315 -60.2235 -60.2235
   -60.2231 -60.2231 -60.2223 -60.2223 -60.2165 -60.2165 -60.2161 -60.2139
   -34.5185 -34.5185 -34.5133 -34.4960 -34.4960 -34.4918 -34.4918 -34.4848
   -34.4848 -34.4584 -34.4148 -34.4007 -34.4007 -34.3880 -34.3684 -34.3684
   -34.3660 -34.3383 -34.3351 -34.3351 -34.3320 -34.3224 -34.3224 -34.3190
   -34.3190 -34.3183 -34.3183 -34.3166 -34.3165 -34.3048 -34.3048 -34.3041
   -34.2997 -34.2738 -34.2738 -34.2704 -34.2704 -34.2674 -34.2674 -34.2631
   -34.2574 -34.2574 -34.2513 -34.2513 -34.2510 -34.2051 -34.2018 -34.2018
   -13.1361 -13.1360 -13.0830 -12.4269 -12.3465 -12.3465 -11.9934 -11.9934
   -11.9717 -11.8977 -11.8977 -11.8758 -11.8758 -11.8249 -11.8249 -11.7033
   -11.6703 -11.6703 -11.4939 -11.4939 -11.4870 -11.4870 -11.4654 -11.4654
   -11.4646 -11.4646 -11.4447 -11.3142 -11.3100 -11.3099 -11.2982 -11.2231
    -4.7191  -4.7171  -4.7171  -4.7169  -4.7169  -4.7082  -4.7082  -4.6543
    -4.6543  -4.6473  -4.6275  -4.6275  -4.5750  -4.4242  -4.3764  -4.3764
    -4.2611  -4.2611  -4.2463  -3.9184  -3.8492  -3.8492  -3.7841  -3.7841
    -3.7581  -3.7581  -3.3846  -3.2861  -3.2861  -3.2711  -3.2334  -3.2334
    -3.2262  -3.2262  -3.2078  -3.2078  -3.1671  -3.1616  -3.1616  -3.0457
    -3.0457  -2.9250  -2.8953  -2.6227  -2.5354  -2.5354  -2.5291  -2.5291
    -2.4747  -2.4747  -2.4743  -2.4730  -2.4730  -2.4586  -2.4586  -2.4520
    -2.4326  -2.4326  -2.2038  -2.0908  -2.0021  -2.0021  -1.8163  -1.6901
    -1.6901  -1.6440  -1.6440  -1.6403  -1.4780  -1.4741  -1.3723  -1.3723
    -1.3346  -1.3346  -1.3122  -1.2245  -1.2060  -1.2060  -1.0341  -1.0341
    -1.0100  -1.0100  -0.9780  -0.9780  -0.9762  -0.9762  -0.9226  -0.9226
    -0.9072  -0.9072  -0.4013  -0.4013  -0.3650  -0.3370  -0.3370  -0.3106
    -0.1398  -0.1398  -0.1187  -0.1187  -0.1131  -0.1112  -0.1112  -0.0670
    -0.0670   0.3122   0.3122   0.3412   0.4364   0.4836   0.4836   0.6226
     2.2845   2.5907   2.5907   2.5973   2.7173   2.7637   2.7637   2.7983
     2.7983   2.8120   2.8120   2.8255   2.8255   3.0014   3.0668   3.0668
     3.1010   3.1087   3.1113   3.1113   3.1266   3.1266   3.1458   3.1458
     3.1477   3.1477   3.1774   3.1774   3.2759   3.2930   3.3237   3.3237
     3.3408   3.3408   3.6364   3.6364   3.7004   3.7245   3.8740   3.8740
     3.9588   4.0211   4.0211   4.0953   4.1070   4.1070   4.1127   4.1127
     4.1629   4.1752   4.1752   4.7534

          k = 0.3500 0.5485 0.0000 (126391 PWs)   bands (ev):

   -60.2480 -60.2480 -60.2470 -60.2328 -60.2316 -60.2316 -60.2234 -60.2234
   -60.2231 -60.2231 -60.2224 -60.2224 -60.2164 -60.2164 -60.2162 -60.2139
   -34.5182 -34.5182 -34.5141 -34.4950 -34.4950 -34.4917 -34.4916 -34.4860
   -34.4860 -34.4581 -34.4151 -34.3998 -34.3998 -34.3897 -34.3683 -34.3683
   -34.3663 -34.3378 -34.3354 -34.3354 -34.3307 -34.3231 -34.3231 -34.3188
   -34.3188 -34.3182 -34.3182 -34.3168 -34.3168 -34.3048 -34.3048 -34.3042
   -34.2997 -34.2731 -34.2731 -34.2704 -34.2704 -34.2680 -34.2680 -34.2615
   -34.2570 -34.2570 -34.2520 -34.2520 -34.2519 -34.2046 -34.2020 -34.2020
   -13.1329 -13.1329 -13.0904 -12.4163 -12.3520 -12.3520 -11.9921 -11.9921
   -11.9747 -11.8913 -11.8913 -11.8739 -11.8739 -11.8330 -11.8330 -11.6989
   -11.6725 -11.6725 -11.4915 -11.4915 -11.4860 -11.4860 -11.4687 -11.4687
   -11.4629 -11.4629 -11.4472 -11.3139 -11.3090 -11.3090 -11.2997 -11.2229
    -4.7197  -4.7128  -4.7128  -4.7125  -4.7125  -4.7055  -4.7054  -4.6622
    -4.6622  -4.6570  -4.6243  -4.6243  -4.5822  -4.4180  -4.3801  -4.3800
    -4.2595  -4.2595  -4.2476  -3.9148  -3.8389  -3.8389  -3.7866  -3.7866
    -3.7661  -3.7661  -3.3879  -3.2855  -3.2855  -3.2732  -3.2314  -3.2313
    -3.2254  -3.2254  -3.2107  -3.2107  -3.1670  -3.1622  -3.1622  -3.0367
    -3.0366  -2.9403  -2.8964  -2.6109  -2.5407  -2.5407  -2.5268  -2.5268
    -2.4829  -2.4715  -2.4715  -2.4712  -2.4711  -2.4579  -2.4579  -2.4549
    -2.4372  -2.4372  -2.2029  -2.0788  -2.0073  -2.0073  -1.7933  -1.6872
    -1.6872  -1.6555  -1.6555  -1.6472  -1.4791  -1.4602  -1.3792  -1.3791
    -1.3332  -1.3332  -1.3144  -1.2220  -1.2076  -1.2076  -1.0241  -1.0241
    -1.0044  -1.0044  -0.9742  -0.9742  -0.9728  -0.9728  -0.9301  -0.9301
    -0.9221  -0.9220  -0.3980  -0.3980  -0.3692  -0.3346  -0.3346  -0.3136
    -0.1383  -0.1382  -0.1174  -0.1145  -0.1145  -0.1088  -0.1088  -0.0734
    -0.0734   0.3147   0.3147   0.3374   0.4431   0.4809   0.4809   0.6236
     2.2832   2.5905   2.5905   2.5956   2.7237   2.7604   2.7604   2.8012
     2.8012   2.8119   2.8119   2.8228   2.8228   3.0100   3.0626   3.0626
     3.1022   3.1105   3.1107   3.1107   3.1249   3.1249   3.1477   3.1477
     3.1494   3.1494   3.1731   3.1731   3.2817   3.2994   3.3195   3.3195
     3.3377   3.3377   3.6414   3.6414   3.6921   3.7241   3.8794   3.8794
     3.9473   4.0332   4.0332   4.1019   4.1019   4.1058   4.1066   4.1066
     4.1641   4.1702   4.1702   4.7626

          k = 0.3458 0.5557 0.0000 (126395 PWs)   bands (ev):

   -60.2479 -60.2479 -60.2472 -60.2326 -60.2317 -60.2317 -60.2233 -60.2233
   -60.2231 -60.2231 -60.2226 -60.2225 -60.2164 -60.2164 -60.2162 -60.2139
   -34.5179 -34.5179 -34.5148 -34.4940 -34.4940 -34.4915 -34.4915 -34.4873
   -34.4873 -34.4579 -34.4154 -34.3989 -34.3989 -34.3914 -34.3681 -34.3681
   -34.3667 -34.3374 -34.3356 -34.3356 -34.3294 -34.3237 -34.3237 -34.3186
   -34.3186 -34.3182 -34.3182 -34.3171 -34.3171 -34.3047 -34.3047 -34.3043
   -34.2997 -34.2724 -34.2724 -34.2704 -34.2704 -34.2686 -34.2686 -34.2598
   -34.2566 -34.2566 -34.2528 -34.2528 -34.2527 -34.2042 -34.2022 -34.2022
   -13.1296 -13.1296 -13.0978 -12.4057 -12.3575 -12.3575 -11.9908 -11.9908
   -11.9777 -11.8849 -11.8849 -11.8720 -11.8720 -11.8412 -11.8412 -11.6946
   -11.6748 -11.6748 -11.4891 -11.4891 -11.4851 -11.4851 -11.4720 -11.4720
   -11.4613 -11.4613 -11.4497 -11.3136 -11.3081 -11.3081 -11.3012 -11.2228
    -4.7202  -4.7084  -4.7084  -4.7080  -4.7079  -4.7026  -4.7026  -4.6701
    -4.6701  -4.6666  -4.6210  -4.6210  -4.5894  -4.4119  -4.3836  -4.3836
    -4.2581  -4.2580  -4.2490  -3.9120  -3.8285  -3.8285  -3.7891  -3.7891
    -3.7740  -3.7740  -3.3905  -3.2847  -3.2847  -3.2754  -3.2292  -3.2292
    -3.2246  -3.2246  -3.2136  -3.2136  -3.1667  -3.1628  -3.1628  -3.0278
    -3.0278  -2.9557  -2.8972  -2.5990  -2.5462  -2.5462  -2.5242  -2.5242
    -2.4912  -2.4701  -2.4701  -2.4675  -2.4675  -2.4578  -2.4572  -2.4572
    -2.4418  -2.4418  -2.2022  -2.0667  -2.0127  -2.0127  -1.7703  -1.6841
    -1.6841  -1.6669  -1.6669  -1.6541  -1.4799  -1.4465  -1.3860  -1.3860
    -1.3317  -1.3317  -1.3170  -1.2196  -1.2091  -1.2090  -1.0140  -1.0140
    -0.9989  -0.9988  -0.9705  -0.9705  -0.9694  -0.9694  -0.9376  -0.9376
    -0.9371  -0.9371  -0.3949  -0.3949  -0.3735  -0.3324  -0.3324  -0.3166
    -0.1367  -0.1367  -0.1214  -0.1105  -0.1105  -0.1063  -0.1063  -0.0798
    -0.0798   0.3169   0.3169   0.3337   0.4498   0.4781   0.4781   0.6244
     2.2822   2.5904   2.5904   2.5942   2.7299   2.7572   2.7573   2.8040
     2.8040   2.8118   2.8118   2.8200   2.8200   3.0187   3.0584   3.0584
     3.1036   3.1100   3.1100   3.1125   3.1233   3.1233   3.1497   3.1497
     3.1512   3.1512   3.1689   3.1689   3.2875   3.3058   3.3156   3.3156
     3.3346   3.3346   3.6461   3.6461   3.6838   3.7238   3.8849   3.8849
     3.9358   4.0452   4.0452   4.0968   4.0968   4.1003   4.1003   4.1164
     4.1650   4.1651   4.1651   4.7716

          k = 0.3417 0.5629 0.0000 (126411 PWs)   bands (ev):

   -60.2478 -60.2478 -60.2473 -60.2324 -60.2318 -60.2318 -60.2232 -60.2232
   -60.2230 -60.2230 -60.2227 -60.2227 -60.2164 -60.2164 -60.2162 -60.2139
   -34.5176 -34.5176 -34.5155 -34.4930 -34.4930 -34.4913 -34.4913 -34.4885
   -34.4885 -34.4578 -34.4155 -34.3980 -34.3980 -34.3930 -34.3680 -34.3680
   -34.3670 -34.3370 -34.3358 -34.3358 -34.3281 -34.3243 -34.3243 -34.3184
   -34.3184 -34.3181 -34.3181 -34.3174 -34.3174 -34.3047 -34.3047 -34.3044
   -34.2997 -34.2718 -34.2718 -34.2704 -34.2704 -34.2692 -34.2692 -34.2582
   -34.2562 -34.2562 -34.2536 -34.2535 -34.2535 -34.2037 -34.2024 -34.2024
   -13.1263 -13.1263 -13.1050 -12.3950 -12.3630 -12.3630 -11.9894 -11.9894
   -11.9807 -11.8786 -11.8786 -11.8700 -11.8700 -11.8494 -11.8494 -11.6902
   -11.6770 -11.6770 -11.4867 -11.4867 -11.4841 -11.4841 -11.4753 -11.4753
   -11.4598 -11.4598 -11.4522 -11.3134 -11.3073 -11.3073 -11.3027 -11.2227
    -4.7205  -4.7040  -4.7040  -4.7033  -4.7033  -4.6997  -4.6997  -4.6780
    -4.6780  -4.6761  -4.6177  -4.6177  -4.5965  -4.4057  -4.3870  -4.3870
    -4.2567  -4.2567  -4.2506  -3.9100  -3.8182  -3.8182  -3.7918  -3.7918
    -3.7819  -3.7819  -3.3924  -3.2839  -3.2838  -3.2775  -3.2270  -3.2270
    -3.2238  -3.2238  -3.2165  -3.2165  -3.1662  -3.1634  -3.1634  -3.0192
    -3.0192  -2.9713  -2.8978  -2.5871  -2.5518  -2.5518  -2.5213  -2.5213
    -2.4993  -2.4687  -2.4687  -2.4637  -2.4637  -2.4606  -2.4566  -2.4566
    -2.4464  -2.4464  -2.2016  -2.0546  -2.0183  -2.0183  -1.7473  -1.6810
    -1.6810  -1.6784  -1.6784  -1.6609  -1.4805  -1.4329  -1.3927  -1.3927
    -1.3301  -1.3301  -1.3199  -1.2172  -1.2104  -1.2104  -1.0037  -1.0037
    -0.9935  -0.9935  -0.9667  -0.9667  -0.9660  -0.9660  -0.9522  -0.9522
    -0.9449  -0.9449  -0.3920  -0.3920  -0.3779  -0.3303  -0.3303  -0.3198
    -0.1352  -0.1352  -0.1252  -0.1065  -0.1065  -0.1039  -0.1039  -0.0862
    -0.0862   0.3191   0.3191   0.3301   0.4564   0.4752   0.4752   0.6250
     2.2815   2.5905   2.5905   2.5929   2.7361   2.7541   2.7541   2.8068
     2.8068   2.8118   2.8118   2.8173   2.8173   3.0275   3.0541   3.0541
     3.1050   3.1093   3.1094   3.1146   3.1218   3.1218   3.1519   3.1519
     3.1529   3.1529   3.1647   3.1647   3.2935   3.3120   3.3120   3.3122
     3.3315   3.3315   3.6507   3.6507   3.6755   3.7235   3.8904   3.8904
     3.9243   4.0572   4.0572   4.0916   4.0916   4.0940   4.0940   4.1272
     4.1598   4.1598   4.1657   4.7806

          k = 0.3375 0.5701 0.0000 (126409 PWs)   bands (ev):

   -60.2477 -60.2477 -60.2475 -60.2322 -60.2319 -60.2319 -60.2231 -60.2231
   -60.2230 -60.2230 -60.2228 -60.2228 -60.2164 -60.2163 -60.2163 -60.2139
   -34.5173 -34.5173 -34.5162 -34.4920 -34.4920 -34.4911 -34.4911 -34.4897
   -34.4897 -34.4577 -34.4156 -34.3972 -34.3972 -34.3947 -34.3678 -34.3678
   -34.3673 -34.3366 -34.3360 -34.3360 -34.3269 -34.3250 -34.3250 -34.3181
   -34.3181 -34.3180 -34.3180 -34.3177 -34.3177 -34.3046 -34.3046 -34.3045
   -34.2997 -34.2711 -34.2711 -34.2704 -34.2704 -34.2698 -34.2698 -34.2566
   -34.2557 -34.2557 -34.2545 -34.2543 -34.2543 -34.2033 -34.2026 -34.2026
   -13.1229 -13.1229 -13.1122 -12.3844 -12.3684 -12.3684 -11.9880 -11.9880
   -11.9837 -11.8723 -11.8722 -11.8680 -11.8680 -11.8576 -11.8576 -11.6858
   -11.6792 -11.6792 -11.4844 -11.4844 -11.4831 -11.4831 -11.4787 -11.4787
   -11.4584 -11.4584 -11.4547 -11.3133 -11.3065 -11.3065 -11.3042 -11.2226
    -4.7207  -4.6994  -4.6994  -4.6986  -4.6986  -4.6968  -4.6968  -4.6859
    -4.6859  -4.6855  -4.6143  -4.6142  -4.6037  -4.3995  -4.3903  -4.3903
    -4.2555  -4.2555  -4.2524  -3.9088  -3.8078  -3.8078  -3.7945  -3.7945
    -3.7896  -3.7896  -3.3936  -3.2829  -3.2829  -3.2797  -3.2247  -3.2247
    -3.2231  -3.2231  -3.2194  -3.2194  -3.1655  -3.1640  -3.1640  -3.0109
    -3.0109  -2.9870  -2.8981  -2.5752  -2.5575  -2.5575  -2.5181  -2.5181
    -2.5071  -2.4673  -2.4673  -2.4633  -2.4597  -2.4597  -2.4561  -2.4561
    -2.4510  -2.4510  -2.2013  -2.0424  -2.0242  -2.0241  -1.7243  -1.6898
    -1.6898  -1.6778  -1.6778  -1.6677  -1.4808  -1.4194  -1.3994  -1.3994
    -1.3284  -1.3284  -1.3231  -1.2150  -1.2116  -1.2116  -0.9934  -0.9934
    -0.9882  -0.9882  -0.9676  -0.9675  -0.9630  -0.9630  -0.9626  -0.9626
    -0.9521  -0.9521  -0.3894  -0.3894  -0.3824  -0.3283  -0.3283  -0.3231
    -0.1336  -0.1336  -0.1287  -0.1026  -0.1026  -0.1014  -0.1014  -0.0925
    -0.0925   0.3211   0.3211   0.3265   0.4628   0.4722   0.4722   0.6253
     2.2810   2.5906   2.5907   2.5918   2.7422   2.7511   2.7511   2.8094
     2.8094   2.8119   2.8119   2.8146   2.8146   3.0363   3.0497   3.0497
     3.1064   3.1086   3.1086   3.1168   3.1204   3.1204   3.1541   3.1541
     3.1546   3.1546   3.1605   3.1605   3.2994   3.3086   3.3086   3.3187
     3.3283   3.3283   3.6550   3.6550   3.6673   3.7234   3.8960   3.8960
     3.9129   4.0692   4.0692   4.0863   4.0863   4.0876   4.0876   4.1380
     4.1545   4.1545   4.1661   4.7894

          k = 0.3333 0.5773 0.0000 (126429 PWs)   bands (ev):

   -60.2477 -60.2477 -60.2476 -60.2320 -60.2320 -60.2320 -60.2230 -60.2230
   -60.2230 -60.2230 -60.2230 -60.2229 -60.2163 -60.2163 -60.2163 -60.2139
   -34.5169 -34.5169 -34.5169 -34.4910 -34.4910 -34.4910 -34.4910 -34.4910
   -34.4910 -34.4577 -34.4157 -34.3964 -34.3963 -34.3963 -34.3677 -34.3677
   -34.3676 -34.3362 -34.3362 -34.3362 -34.3256 -34.3256 -34.3256 -34.3180
   -34.3179 -34.3179 -34.3179 -34.3179 -34.3179 -34.3046 -34.3046 -34.3046
   -34.2997 -34.2705 -34.2705 -34.2705 -34.2704 -34.2704 -34.2704 -34.2553
   -34.2553 -34.2553 -34.2550 -34.2550 -34.2550 -34.2028 -34.2028 -34.2028
   -13.1194 -13.1194 -13.1194 -12.3737 -12.3737 -12.3737 -11.9866 -11.9866
   -11.9866 -11.8660 -11.8660 -11.8660 -11.8660 -11.8660 -11.8659 -11.6814
   -11.6814 -11.6814 -11.4821 -11.4820 -11.4820 -11.4820 -11.4820 -11.4820
   -11.4572 -11.4571 -11.4571 -11.3133 -11.3057 -11.3057 -11.3057 -11.2226
    -4.7208  -4.6948  -4.6948  -4.6948  -4.6938  -4.6938  -4.6938  -4.6938
    -4.6938  -4.6938  -4.6108  -4.6108  -4.6107  -4.3934  -4.3934  -4.3934
    -4.2544  -4.2544  -4.2544  -3.9084  -3.7973  -3.7973  -3.7973  -3.7973
    -3.7973  -3.7973  -3.3940  -3.2819  -3.2819  -3.2819  -3.2224  -3.2224
    -3.2224  -3.2224  -3.2224  -3.2224  -3.1645  -3.1645  -3.1645  -3.0028
    -3.0028  -3.0028  -2.8982  -2.5634  -2.5634  -2.5634  -2.5146  -2.5146
    -2.5146  -2.4660  -2.4660  -2.4660  -2.4556  -2.4556  -2.4556  -2.4556
    -2.4556  -2.4556  -2.2012  -2.0302  -2.0302  -2.0302  -1.7013  -1.7013
    -1.7013  -1.6744  -1.6744  -1.6744  -1.4809  -1.4061  -1.4061  -1.4061
    -1.3266  -1.3266  -1.3266  -1.2128  -1.2128  -1.2128  -0.9830  -0.9830
    -0.9830  -0.9830  -0.9830  -0.9830  -0.9592  -0.9592  -0.9592  -0.9592
    -0.9592  -0.9592  -0.3869  -0.3869  -0.3869  -0.3265  -0.3265  -0.3265
    -0.1320  -0.1320  -0.1320  -0.0989  -0.0989  -0.0989  -0.0988  -0.0988
    -0.0988   0.3229   0.3229   0.3229   0.4691   0.4691   0.4691   0.6254
     2.2809   2.5910   2.5910   2.5910   2.7481   2.7481   2.7481   2.8119
     2.8120   2.8120   2.8120   2.8120   2.8120   3.0453   3.0453   3.0453
     3.1079   3.1079   3.1079   3.1191   3.1191   3.1191   3.1564   3.1564
     3.1564   3.1564   3.1564   3.1564   3.3054   3.3054   3.3054   3.3251
     3.3251   3.3251   3.6592   3.6592   3.6592   3.7234   3.9016   3.9016
     3.9016   4.0810   4.0810   4.0810   4.0810   4.0810   4.0811   4.1490
     4.1490   4.1490   4.1662   4.7981

          k = 0.3250 0.5629 0.0000 (126413 PWs)   bands (ev):

   -60.2480 -60.2475 -60.2475 -60.2322 -60.2322 -60.2316 -60.2233 -60.2232
   -60.2229 -60.2229 -60.2228 -60.2228 -60.2164 -60.2163 -60.2163 -60.2139
   -34.5183 -34.5162 -34.5162 -34.4934 -34.4934 -34.4906 -34.4906 -34.4888
   -34.4888 -34.4578 -34.4155 -34.3996 -34.3947 -34.3947 -34.3683 -34.3673
   -34.3673 -34.3366 -34.3366 -34.3354 -34.3269 -34.3268 -34.3231 -34.3185
   -34.3185 -34.3178 -34.3178 -34.3175 -34.3175 -34.3047 -34.3045 -34.3045
   -34.2997 -34.2718 -34.2718 -34.2705 -34.2705 -34.2691 -34.2691 -34.2571
   -34.2567 -34.2567 -34.2544 -34.2544 -34.2519 -34.2033 -34.2033 -34.2020
   -13.1334 -13.1121 -13.1121 -12.3843 -12.3843 -12.3524 -11.9923 -11.9836
   -11.9836 -11.8828 -11.8828 -11.8617 -11.8617 -11.8535 -11.8535 -11.6858
   -11.6858 -11.6727 -11.4888 -11.4888 -11.4799 -11.4799 -11.4774 -11.4774
   -11.4621 -11.4549 -11.4549 -11.3134 -11.3087 -11.3043 -11.3043 -11.2227
    -4.7205  -4.7132  -4.7096  -4.7095  -4.6876  -4.6876  -4.6854  -4.6854
    -4.6839  -4.6839  -4.6248  -4.6035  -4.6035  -4.3993  -4.3993  -4.3811
    -4.2588  -4.2526  -4.2526  -3.9100  -3.8123  -3.8123  -3.8032  -3.8032
    -3.7763  -3.7763  -3.3924  -3.2862  -3.2795  -3.2795  -3.2285  -3.2285
    -3.2212  -3.2212  -3.2176  -3.2176  -3.1656  -3.1655  -3.1620  -3.0348
    -2.9875  -2.9875  -2.8978  -2.5755  -2.5755  -2.5397  -2.5288  -2.5065
    -2.5065  -2.4711  -2.4648  -2.4648  -2.4634  -2.4634  -2.4549  -2.4549
    -2.4470  -2.4470  -2.2016  -2.0428  -2.0428  -2.0056  -1.7243  -1.7243
    -1.6878  -1.6675  -1.6675  -1.6554  -1.4804  -1.4192  -1.4192  -1.3799
    -1.3346  -1.3227  -1.3227  -1.2147  -1.2147  -1.2086  -1.0144  -1.0144
    -0.9732  -0.9732  -0.9730  -0.9730  -0.9620  -0.9620  -0.9526  -0.9526
    -0.9518  -0.9518  -0.3963  -0.3828  -0.3828  -0.3336  -0.3233  -0.3233
    -0.1379  -0.1288  -0.1288  -0.1113  -0.1113  -0.0937  -0.0937  -0.0915
    -0.0915   0.3159   0.3262   0.3262   0.4627   0.4627   0.4814   0.6249
     2.2815   2.5899   2.5920   2.5920   2.7424   2.7424   2.7597   2.8068
     2.8068   2.8123   2.8123   2.8168   2.8168   3.0362   3.0362   3.0634
     3.1063   3.1063   3.1110   3.1170   3.1170   3.1241   3.1482   3.1482
     3.1599   3.1599   3.1613   3.1613   3.2999   3.2999   3.3176   3.3186
     3.3186   3.3380   3.6431   3.6669   3.6669   3.7235   3.8792   3.9130
     3.9130   4.0678   4.0678   4.0704   4.0704   4.1046   4.1046   4.1378
     4.1378   4.1656   4.1713   4.7893

          k = 0.3167 0.5485 0.0000 (126407 PWs)   bands (ev):

   -60.2483 -60.2473 -60.2473 -60.2324 -60.2324 -60.2312 -60.2235 -60.2235
   -60.2228 -60.2228 -60.2226 -60.2226 -60.2165 -60.2163 -60.2162 -60.2139
   -34.5197 -34.5154 -34.5154 -34.4958 -34.4958 -34.4902 -34.4902 -34.4866
   -34.4866 -34.4581 -34.4151 -34.4029 -34.3932 -34.3932 -34.3689 -34.3670
   -34.3670 -34.3370 -34.3370 -34.3345 -34.3281 -34.3281 -34.3206 -34.3191
   -34.3191 -34.3176 -34.3176 -34.3171 -34.3171 -34.3049 -34.3044 -34.3044
   -34.2997 -34.2732 -34.2732 -34.2705 -34.2705 -34.2679 -34.2678 -34.2588
   -34.2584 -34.2584 -34.2535 -34.2535 -34.2488 -34.2037 -34.2037 -34.2011
   -13.1472 -13.1045 -13.1045 -12.3946 -12.3946 -12.3311 -11.9979 -11.9805
   -11.9805 -11.8998 -11.8998 -11.8573 -11.8573 -11.8412 -11.8412 -11.6901
   -11.6900 -11.6639 -11.4957 -11.4957 -11.4777 -11.4777 -11.4728 -11.4728
   -11.4670 -11.4530 -11.4530 -11.3139 -11.3116 -11.3031 -11.3031 -11.2229
    -4.7312  -4.7252  -4.7252  -4.7197  -4.6812  -4.6812  -4.6757  -4.6757
    -4.6737  -4.6737  -4.6387  -4.5961  -4.5961  -4.4046  -4.4046  -4.3689
    -4.2639  -4.2513  -4.2512  -3.9148  -3.8270  -3.8270  -3.8094  -3.8094
    -3.7552  -3.7552  -3.3877  -3.2906  -3.2767  -3.2767  -3.2347  -3.2347
    -3.2201  -3.2201  -3.2126  -3.2126  -3.1665  -3.1665  -3.1586  -3.0672
    -2.9733  -2.9733  -2.8966  -2.5880  -2.5880  -2.5421  -2.5162  -2.4971
    -2.4971  -2.4759  -2.4739  -2.4739  -2.4611  -2.4611  -2.4543  -2.4543
    -2.4379  -2.4379  -2.2029  -2.0563  -2.0563  -1.9809  -1.7474  -1.7474
    -1.7010  -1.6603  -1.6602  -1.6094  -1.4790  -1.4321  -1.4321  -1.3542
    -1.3439  -1.3186  -1.3186  -1.2161  -1.2161  -1.2048  -1.0463  -1.0463
    -0.9867  -0.9867  -0.9636  -0.9635  -0.9460  -0.9460  -0.9445  -0.9445
    -0.9407  -0.9407  -0.4060  -0.3796  -0.3796  -0.3413  -0.3209  -0.3209
    -0.1429  -0.1255  -0.1255  -0.1237  -0.1236  -0.0886  -0.0886  -0.0845
    -0.0845   0.3090   0.3289   0.3289   0.4558   0.4558   0.4932   0.6235
     2.2832   2.5896   2.5935   2.5935   2.7369   2.7369   2.7708   2.8020
     2.8020   2.8129   2.8129   2.8212   2.8212   3.0268   3.0268   3.0818
     3.1047   3.1047   3.1142   3.1155   3.1155   3.1295   3.1401   3.1401
     3.1635   3.1635   3.1666   3.1666   3.2954   3.2954   3.3120   3.3120
     3.3300   3.3509   3.6273   3.6737   3.6737   3.7240   3.8571   3.9245
     3.9245   4.0544   4.0544   4.0596   4.0596   4.1262   4.1262   4.1278
     4.1278   4.1640   4.1940   4.7801

          k = 0.3083 0.5340 0.0000 (126397 PWs)   bands (ev):

   -60.2486 -60.2471 -60.2471 -60.2326 -60.2326 -60.2308 -60.2238 -60.2238
   -60.2227 -60.2227 -60.2224 -60.2224 -60.2166 -60.2162 -60.2162 -60.2139
   -34.5210 -34.5146 -34.5146 -34.4982 -34.4982 -34.4899 -34.4899 -34.4844
   -34.4844 -34.4587 -34.4145 -34.4061 -34.3917 -34.3917 -34.3696 -34.3666
   -34.3666 -34.3374 -34.3374 -34.3337 -34.3293 -34.3293 -34.3197 -34.3197
   -34.3182 -34.3175 -34.3174 -34.3167 -34.3167 -34.3051 -34.3044 -34.3044
   -34.2997 -34.2746 -34.2746 -34.2705 -34.2705 -34.2666 -34.2666 -34.2606
   -34.2602 -34.2601 -34.2526 -34.2526 -34.2458 -34.2042 -34.2042 -34.2003
   -13.1606 -13.0966 -13.0966 -12.4048 -12.4048 -12.3097 -12.0034 -11.9773
   -11.9772 -11.9170 -11.9170 -11.8526 -11.8526 -11.8290 -11.8290 -11.6942
   -11.6942 -11.6551 -11.5026 -11.5026 -11.4754 -11.4754 -11.4718 -11.4684
   -11.4683 -11.4515 -11.4515 -11.3147 -11.3146 -11.3020 -11.3020 -11.2233
    -4.7488  -4.7408  -4.7408  -4.7183  -4.6746  -4.6746  -4.6659  -4.6659
    -4.6631  -4.6631  -4.6525  -4.5883  -4.5883  -4.4094  -4.4094  -4.3568
    -4.2695  -4.2504  -4.2504  -3.9224  -3.8412  -3.8412  -3.8160  -3.8160
    -3.7339  -3.7339  -3.3800  -3.2950  -3.2735  -3.2735  -3.2409  -3.2409
    -3.2192  -3.2192  -3.2073  -3.2073  -3.1673  -3.1673  -3.1546  -3.1000
    -2.9604  -2.9604  -2.8948  -2.6011  -2.6011  -2.5544  -2.4928  -2.4863
    -2.4863  -2.4829  -2.4829  -2.4805  -2.4590  -2.4590  -2.4540  -2.4540
    -2.4282  -2.4282  -2.2050  -2.0705  -2.0705  -1.9560  -1.7704  -1.7704
    -1.7140  -1.6526  -1.6526  -1.5636  -1.4766  -1.4446  -1.4446  -1.3544
    -1.3291  -1.3141  -1.3141  -1.2171  -1.2171  -1.2014  -1.0787  -1.0787
    -0.9998  -0.9998  -0.9546  -0.9545  -0.9395  -0.9395  -0.9374  -0.9374
    -0.9192  -0.9192  -0.4160  -0.3774  -0.3774  -0.3493  -0.3191  -0.3191
    -0.1470  -0.1357  -0.1357  -0.1222  -0.1222  -0.0833  -0.0833  -0.0777
    -0.0777   0.3022   0.3309   0.3309   0.4486   0.4486   0.5046   0.6212
     2.2862   2.5901   2.5955   2.5956   2.7319   2.7319   2.7814   2.7974
     2.7974   2.8136   2.8136   2.8252   2.8252   3.0173   3.0173   3.1004
     3.1029   3.1029   3.1146   3.1146   3.1176   3.1320   3.1320   3.1354
     3.1670   3.1670   3.1723   3.1723   3.2919   3.2919   3.3052   3.3052
     3.3426   3.3638   3.6118   3.6797   3.6798   3.7249   3.8352   3.9360
     3.9360   4.0407   4.0407   4.0487   4.0488   4.1143   4.1143   4.1506
     4.1506   4.1612   4.2170   4.7707

          k = 0.3000 0.5196 0.0000 (126371 PWs)   bands (ev):

   -60.2489 -60.2470 -60.2469 -60.2328 -60.2328 -60.2304 -60.2241 -60.2241
   -60.2226 -60.2226 -60.2222 -60.2222 -60.2167 -60.2162 -60.2162 -60.2139
   -34.5223 -34.5137 -34.5137 -34.5005 -34.5005 -34.4895 -34.4895 -34.4821
   -34.4821 -34.4593 -34.4136 -34.4092 -34.3902 -34.3902 -34.3702 -34.3663
   -34.3662 -34.3378 -34.3378 -34.3329 -34.3305 -34.3305 -34.3203 -34.3203
   -34.3173 -34.3173 -34.3163 -34.3163 -34.3158 -34.3053 -34.3043 -34.3043
   -34.2998 -34.2761 -34.2761 -34.2704 -34.2704 -34.2653 -34.2653 -34.2624
   -34.2620 -34.2620 -34.2517 -34.2517 -34.2428 -34.2047 -34.2047 -34.1995
   -13.1737 -13.0883 -13.0883 -12.4147 -12.4147 -12.2884 -12.0088 -11.9739
   -11.9739 -11.9344 -11.9344 -11.8478 -11.8478 -11.8170 -11.8170 -11.6984
   -11.6983 -11.6463 -11.5096 -11.5096 -11.4766 -11.4730 -11.4730 -11.4639
   -11.4639 -11.4504 -11.4504 -11.3175 -11.3157 -11.3010 -11.3010 -11.2239
    -4.7660  -4.7563  -4.7563  -4.7162  -4.6678  -4.6678  -4.6660  -4.6558
    -4.6558  -4.6522  -4.6522  -4.5803  -4.5803  -4.4137  -4.4137  -4.3447
    -4.2756  -4.2499  -4.2499  -3.9327  -3.8551  -3.8551  -3.8230  -3.8230
    -3.7125  -3.7125  -3.3695  -3.2994  -3.2698  -3.2698  -3.2472  -3.2472
    -3.2185  -3.2185  -3.2018  -3.2018  -3.1680  -3.1680  -3.1498  -3.1331
    -2.9487  -2.9487  -2.8922  -2.6145  -2.6145  -2.5657  -2.4917  -2.4917
    -2.4847  -2.4740  -2.4740  -2.4695  -2.4571  -2.4571  -2.4540  -2.4540
    -2.4179  -2.4179  -2.2080  -2.0856  -2.0856  -1.9309  -1.7934  -1.7934
    -1.7268  -1.6446  -1.6446  -1.5180  -1.4732  -1.4567  -1.4567  -1.3662
    -1.3094  -1.3094  -1.3047  -1.2175  -1.2175  -1.1982  -1.1115  -1.1115
    -1.0124  -1.0124  -0.9461  -0.9461  -0.9331  -0.9331  -0.9304  -0.9304
    -0.8975  -0.8975  -0.4264  -0.3762  -0.3762  -0.3579  -0.3181  -0.3181
    -0.1502  -0.1476  -0.1476  -0.1189  -0.1189  -0.0780  -0.0780  -0.0713
    -0.0713   0.2954   0.3324   0.3324   0.4410   0.4410   0.5155   0.6178
     2.2903   2.5915   2.5981   2.5981   2.7272   2.7272   2.7915   2.7932
     2.7932   2.8146   2.8146   2.8289   2.8289   3.0076   3.0076   3.1010
     3.1010   3.1144   3.1144   3.1194   3.1211   3.1239   3.1239   3.1417
     3.1706   3.1706   3.1783   3.1783   3.2894   3.2894   3.2984   3.2984
     3.3553   3.3766   3.5967   3.6849   3.6849   3.7260   3.8137   3.9477
     3.9477   4.0269   4.0269   4.0377   4.0377   4.1022   4.1022   4.1573
     4.1730   4.1730   4.2403   4.7609

          k = 0.2917 0.5052 0.0000 (126383 PWs)   bands (ev):

   -60.2492 -60.2468 -60.2468 -60.2330 -60.2330 -60.2300 -60.2244 -60.2244
   -60.2226 -60.2225 -60.2220 -60.2220 -60.2168 -60.2162 -60.2162 -60.2140
   -34.5236 -34.5128 -34.5128 -34.5028 -34.5028 -34.4891 -34.4891 -34.4797
   -34.4797 -34.4602 -34.4124 -34.4123 -34.3888 -34.3888 -34.3708 -34.3659
   -34.3659 -34.3382 -34.3382 -34.3321 -34.3316 -34.3316 -34.3209 -34.3209
   -34.3171 -34.3171 -34.3159 -34.3159 -34.3135 -34.3054 -34.3043 -34.3043
   -34.2998 -34.2776 -34.2776 -34.2704 -34.2704 -34.2642 -34.2640 -34.2640
   -34.2640 -34.2640 -34.2508 -34.2508 -34.2399 -34.2051 -34.2051 -34.1987
   -13.1866 -13.0797 -13.0797 -12.4245 -12.4245 -12.2670 -12.0140 -11.9704
   -11.9704 -11.9520 -11.9520 -11.8429 -11.8429 -11.8052 -11.8052 -11.7024
   -11.7024 -11.6375 -11.5167 -11.5167 -11.4814 -11.4705 -11.4705 -11.4596
   -11.4596 -11.4496 -11.4496 -11.3203 -11.3171 -11.3003 -11.3003 -11.2246
    -4.7829  -4.7717  -4.7717  -4.7136  -4.6794  -4.6608  -4.6608  -4.6455
    -4.6455  -4.6411  -4.6411  -4.5721  -4.5721  -4.4175  -4.4174  -4.3328
    -4.2821  -4.2499  -4.2499  -3.9453  -3.8685  -3.8685  -3.8303  -3.8303
    -3.6911  -3.6911  -3.3567  -3.3038  -3.2657  -3.2657  -3.2536  -3.2536
    -3.2179  -3.2179  -3.1961  -3.1961  -3.1686  -3.1686  -3.1664  -3.1445
    -2.9383  -2.9383  -2.8890  -2.6284  -2.6284  -2.5762  -2.5002  -2.5002
    -2.4887  -2.4603  -2.4603  -2.4555  -2.4555  -2.4542  -2.4542  -2.4465
    -2.4071  -2.4071  -2.2118  -2.1014  -2.1014  -1.9057  -1.8164  -1.8164
    -1.7393  -1.6362  -1.6362  -1.4725  -1.4688  -1.4685  -1.4685  -1.3791
    -1.3044  -1.3044  -1.2808  -1.2175  -1.2175  -1.1953  -1.1448  -1.1448
    -1.0246  -1.0246  -0.9381  -0.9381  -0.9267  -0.9267  -0.9237  -0.9237
    -0.8757  -0.8757  -0.4371  -0.3759  -0.3759  -0.3669  -0.3179  -0.3179
    -0.1591  -0.1591  -0.1525  -0.1156  -0.1156  -0.0727  -0.0727  -0.0651
    -0.0651   0.2888   0.3333   0.3333   0.4330   0.4330   0.5259   0.6136
     2.2956   2.5938   2.6011   2.6011   2.7229   2.7229   2.7895   2.7895
     2.8011   2.8158   2.8158   2.8322   2.8322   2.9979   2.9979   3.0990
     3.0990   3.1149   3.1149   3.1159   3.1159   3.1246   3.1385   3.1484
     3.1743   3.1743   3.1846   3.1846   3.2879   3.2879   3.2915   3.2915
     3.3681   3.3893   3.5819   3.6892   3.6892   3.7274   3.7926   3.9594
     3.9595   4.0130   4.0130   4.0266   4.0266   4.0898   4.0898   4.1523
     4.1949   4.1949   4.2640   4.7509

          k = 0.2833 0.4907 0.0000 (126367 PWs)   bands (ev):

   -60.2495 -60.2466 -60.2466 -60.2332 -60.2332 -60.2296 -60.2247 -60.2247
   -60.2225 -60.2225 -60.2218 -60.2218 -60.2168 -60.2162 -60.2162 -60.2140
   -34.5248 -34.5119 -34.5119 -34.5050 -34.5050 -34.4887 -34.4886 -34.4772
   -34.4772 -34.4611 -34.4154 -34.4112 -34.3875 -34.3875 -34.3713 -34.3655
   -34.3654 -34.3385 -34.3385 -34.3327 -34.3327 -34.3313 -34.3215 -34.3215
   -34.3169 -34.3169 -34.3156 -34.3156 -34.3112 -34.3056 -34.3043 -34.3043
   -34.2999 -34.2792 -34.2791 -34.2704 -34.2704 -34.2661 -34.2660 -34.2660
   -34.2628 -34.2628 -34.2498 -34.2498 -34.2370 -34.2056 -34.2056 -34.1980
   -13.1991 -13.0708 -13.0708 -12.4340 -12.4340 -12.2457 -12.0191 -11.9698
   -11.9698 -11.9667 -11.9667 -11.8377 -11.8377 -11.7935 -11.7935 -11.7063
   -11.7063 -11.6287 -11.5238 -11.5238 -11.4860 -11.4680 -11.4680 -11.4553
   -11.4553 -11.4492 -11.4492 -11.3232 -11.3188 -11.2997 -11.2996 -11.2255
    -4.7993  -4.7869  -4.7869  -4.7104  -4.6925  -4.6537  -4.6537  -4.6352
    -4.6352  -4.6297  -4.6297  -4.5637  -4.5637  -4.4207  -4.4206  -4.3210
    -4.2890  -4.2502  -4.2502  -3.9597  -3.8816  -3.8816  -3.8380  -3.8380
    -3.6695  -3.6695  -3.3418  -3.3082  -3.2611  -3.2611  -3.2600  -3.2600
    -3.2176  -3.2175  -3.2000  -3.1901  -3.1901  -3.1690  -3.1690  -3.1386
    -2.9290  -2.9290  -2.8853  -2.6427  -2.6427  -2.5858  -2.5086  -2.5086
    -2.4924  -2.4546  -2.4546  -2.4541  -2.4541  -2.4452  -2.4452  -2.4237
    -2.3958  -2.3958  -2.2164  -2.1180  -2.1180  -1.8803  -1.8393  -1.8393
    -1.7516  -1.6275  -1.6275  -1.4799  -1.4799  -1.4635  -1.4272  -1.3932
    -1.2992  -1.2992  -1.2576  -1.2169  -1.2169  -1.1928  -1.1786  -1.1785
    -1.0363  -1.0363  -0.9307  -0.9307  -0.9204  -0.9204  -0.9172  -0.9172
    -0.8538  -0.8538  -0.4481  -0.3765  -0.3765  -0.3763  -0.3184  -0.3184
    -0.1703  -0.1703  -0.1540  -0.1122  -0.1122  -0.0674  -0.0674  -0.0592
    -0.0592   0.2823   0.3336   0.3336   0.4246   0.4246   0.5359   0.6083
     2.3020   2.5969   2.6047   2.6047   2.7190   2.7190   2.7861   2.7861
     2.8102   2.8171   2.8171   2.8352   2.8352   2.9880   2.9880   3.0969
     3.0969   3.1078   3.1078   3.1161   3.1161   3.1281   3.1554   3.1579
     3.1779   3.1779   3.1913   3.1913   3.2845   3.2845   3.2874   3.2874
     3.3810   3.4019   3.5676   3.6926   3.6926   3.7290   3.7718   3.9713
     3.9713   3.9991   3.9991   4.0154   4.0154   4.0772   4.0772   4.1461
     4.2163   4.2163   4.2879   4.7405

          k = 0.2750 0.4763 0.0000 (126381 PWs)   bands (ev):

   -60.2498 -60.2464 -60.2463 -60.2334 -60.2334 -60.2292 -60.2250 -60.2250
   -60.2224 -60.2224 -60.2216 -60.2216 -60.2169 -60.2162 -60.2162 -60.2140
   -34.5260 -34.5109 -34.5109 -34.5073 -34.5072 -34.4882 -34.4882 -34.4747
   -34.4747 -34.4622 -34.4184 -34.4097 -34.3862 -34.3862 -34.3719 -34.3650
   -34.3650 -34.3389 -34.3389 -34.3338 -34.3338 -34.3305 -34.3221 -34.3221
   -34.3167 -34.3167 -34.3152 -34.3152 -34.3089 -34.3058 -34.3043 -34.3042
   -34.2999 -34.2808 -34.2808 -34.2704 -34.2704 -34.2681 -34.2681 -34.2679
   -34.2615 -34.2615 -34.2488 -34.2488 -34.2342 -34.2061 -34.2061 -34.1972
   -13.2112 -13.0615 -13.0615 -12.4433 -12.4433 -12.2244 -12.0241 -11.9877
   -11.9877 -11.9630 -11.9630 -11.8324 -11.8324 -11.7821 -11.7821 -11.7102
   -11.7102 -11.6199 -11.5310 -11.5310 -11.4906 -11.4654 -11.4653 -11.4511
   -11.4511 -11.4492 -11.4492 -11.3260 -11.3209 -11.2992 -11.2992 -11.2265
    -4.8153  -4.8019  -4.8019  -4.7067  -4.7054  -4.6464  -4.6464  -4.6247
    -4.6247  -4.6180  -4.6180  -4.5551  -4.5551  -4.4233  -4.4233  -4.3094
    -4.2963  -4.2509  -4.2509  -3.9756  -3.8943  -3.8943  -3.8461  -3.8461
    -3.6478  -3.6478  -3.3252  -3.3125  -3.2664  -3.2664  -3.2561  -3.2561
    -3.2337  -3.2173  -3.2173  -3.1840  -3.1840  -3.1694  -3.1694  -3.1323
    -2.9210  -2.9210  -2.8809  -2.6574  -2.6574  -2.5946  -2.5166  -2.5166
    -2.4959  -2.4552  -2.4552  -2.4531  -2.4531  -2.4289  -2.4289  -2.4011
    -2.3839  -2.3839  -2.2218  -2.1354  -2.1353  -1.8622  -1.8622  -1.8548
    -1.7637  -1.6184  -1.6184  -1.4910  -1.4909  -1.4573  -1.4084  -1.3821
    -1.2939  -1.2939  -1.2351  -1.2158  -1.2158  -1.2126  -1.2126  -1.1905
    -1.0475  -1.0475  -0.9239  -0.9239  -0.9142  -0.9142  -0.9111  -0.9111
    -0.8319  -0.8319  -0.4594  -0.3863  -0.3782  -0.3782  -0.3198  -0.3198
    -0.1811  -0.1810  -0.1547  -0.1090  -0.1089  -0.0621  -0.0621  -0.0536
    -0.0536   0.2757   0.3333   0.3333   0.4158   0.4158   0.5455   0.6021
     2.3095   2.6010   2.6087   2.6087   2.7156   2.7156   2.7833   2.7833
     2.8187   2.8187   2.8187   2.8378   2.8378   2.9782   2.9782   3.0947
     3.0947   3.0997   3.0998   3.1181   3.1181   3.1317   3.1628   3.1775
     3.1817   3.1817   3.1982   3.1982   3.2773   3.2773   3.2880   3.2880
     3.3941   3.4143   3.5536   3.6952   3.6952   3.7308   3.7514   3.9831
     3.9831   3.9852   3.9852   4.0040   4.0040   4.0645   4.0645   4.1388
     4.2372   4.2372   4.3119   4.7299

          k = 0.2667 0.4619 0.0000 (126365 PWs)   bands (ev):

   -60.2500 -60.2461 -60.2461 -60.2335 -60.2335 -60.2288 -60.2254 -60.2253
   -60.2223 -60.2223 -60.2214 -60.2214 -60.2170 -60.2162 -60.2162 -60.2141
   -34.5272 -34.5099 -34.5099 -34.5094 -34.5094 -34.4878 -34.4878 -34.4721
   -34.4721 -34.4633 -34.4213 -34.4081 -34.3850 -34.3850 -34.3724 -34.3646
   -34.3646 -34.3393 -34.3393 -34.3349 -34.3349 -34.3297 -34.3228 -34.3227
   -34.3165 -34.3165 -34.3148 -34.3148 -34.3067 -34.3059 -34.3043 -34.3042
   -34.3000 -34.2824 -34.2824 -34.2703 -34.2703 -34.2703 -34.2703 -34.2698
   -34.2603 -34.2603 -34.2479 -34.2479 -34.2315 -34.2066 -34.2066 -34.1965
   -13.2231 -13.0520 -13.0520 -12.4523 -12.4523 -12.2031 -12.0289 -12.0057
   -12.0057 -11.9591 -11.9590 -11.8269 -11.8269 -11.7708 -11.7708 -11.7139
   -11.7139 -11.6111 -11.5382 -11.5382 -11.4951 -11.4627 -11.4626 -11.4496
   -11.4496 -11.4470 -11.4470 -11.3287 -11.3233 -11.2989 -11.2989 -11.2278
    -4.8309  -4.8167  -4.8167  -4.7180  -4.7023  -4.6389  -4.6389  -4.6142
    -4.6142  -4.6062  -4.6062  -4.5463  -4.5463  -4.4254  -4.4254  -4.3037
    -4.2979  -4.2520  -4.2519  -3.9927  -3.9065  -3.9065  -3.8545  -3.8545
    -3.6261  -3.6261  -3.3168  -3.3072  -3.2728  -3.2728  -3.2675  -3.2505
    -3.2505  -3.2172  -3.2172  -3.1776  -3.1776  -3.1696  -3.1696  -3.1256
    -2.9141  -2.9141  -2.8760  -2.6724  -2.6724  -2.6027  -2.5244  -2.5243
    -2.4990  -2.4561  -2.4561  -2.4523  -2.4523  -2.4112  -2.4112  -2.3788
    -2.3715  -2.3715  -2.2279  -2.1534  -2.1534  -1.8849  -1.8849  -1.8292
    -1.7755  -1.6090  -1.6090  -1.5016  -1.5016  -1.4502  -1.4246  -1.3374
    -1.2884  -1.2884  -1.2471  -1.2470  -1.2141  -1.2141  -1.2132  -1.1885
    -1.0583  -1.0583  -0.9177  -0.9177  -0.9080  -0.9080  -0.9052  -0.9052
    -0.8099  -0.8099  -0.4711  -0.3967  -0.3808  -0.3808  -0.3219  -0.3219
    -0.1914  -0.1914  -0.1546  -0.1057  -0.1057  -0.0569  -0.0569  -0.0482
    -0.0482   0.2692   0.3324   0.3324   0.4066   0.4066   0.5545   0.5950
     2.3182   2.6058   2.6132   2.6132   2.7127   2.7127   2.7809   2.7809
     2.8204   2.8204   2.8267   2.8402   2.8402   2.9683   2.9684   3.0916
     3.0917   3.0924   3.0924   3.1208   3.1208   3.1353   3.1706   3.1854
     3.1854   3.1972   3.2053   3.2053   3.2701   3.2701   3.2894   3.2894
     3.4072   3.4266   3.5402   3.6969   3.6969   3.7313   3.7328   3.9713
     3.9713   3.9926   3.9926   3.9950   3.9950   4.0517   4.0517   4.1303
     4.2574   4.2574   4.3361   4.7190

          k = 0.2583 0.4474 0.0000 (126399 PWs)   bands (ev):

   -60.2503 -60.2459 -60.2459 -60.2337 -60.2337 -60.2284 -60.2257 -60.2257
   -60.2222 -60.2222 -60.2213 -60.2213 -60.2171 -60.2162 -60.2162 -60.2141
   -34.5283 -34.5115 -34.5115 -34.5088 -34.5088 -34.4874 -34.4874 -34.4695
   -34.4695 -34.4644 -34.4242 -34.4065 -34.3838 -34.3838 -34.3730 -34.3642
   -34.3642 -34.3396 -34.3396 -34.3359 -34.3359 -34.3289 -34.3234 -34.3234
   -34.3163 -34.3163 -34.3145 -34.3145 -34.3061 -34.3045 -34.3043 -34.3042
   -34.3001 -34.2841 -34.2841 -34.2725 -34.2725 -34.2717 -34.2703 -34.2703
   -34.2591 -34.2591 -34.2469 -34.2469 -34.2288 -34.2071 -34.2071 -34.1958
   -13.2346 -13.0421 -13.0421 -12.4612 -12.4611 -12.1819 -12.0337 -12.0239
   -12.0239 -11.9550 -11.9550 -11.8213 -11.8213 -11.7598 -11.7598 -11.7176
   -11.7176 -11.6023 -11.5455 -11.5455 -11.4996 -11.4599 -11.4599 -11.4503
   -11.4503 -11.4430 -11.4430 -11.3314 -11.3261 -11.2987 -11.2987 -11.2291
    -4.8461  -4.8313  -4.8313  -4.7303  -4.6973  -4.6313  -4.6313  -4.6037
    -4.6037  -4.5941  -4.5941  -4.5373  -4.5373  -4.4270  -4.4270  -4.3114
    -4.2866  -4.2533  -4.2533  -4.0107  -3.9184  -3.9184  -3.8633  -3.8633
    -3.6043  -3.6043  -3.3210  -3.3014  -3.2882  -3.2791  -3.2791  -3.2444
    -3.2444  -3.2173  -3.2173  -3.1710  -3.1710  -3.1697  -3.1697  -3.1184
    -2.9082  -2.9082  -2.8704  -2.6877  -2.6877  -2.6100  -2.5317  -2.5317
    -2.5019  -2.4572  -2.4572  -2.4518  -2.4518  -2.3925  -2.3925  -2.3586
    -2.3586  -2.3569  -2.2347  -2.1721  -2.1721  -1.9075  -1.9075  -1.8035
    -1.7870  -1.5992  -1.5992  -1.5120  -1.5119  -1.4422  -1.4419  -1.2929
    -1.2828  -1.2828  -1.2818  -1.2818  -1.2119  -1.2119  -1.1919  -1.1869
    -1.0685  -1.0685  -0.9122  -0.9122  -0.9018  -0.9018  -0.8998  -0.8998
    -0.7879  -0.7879  -0.4830  -0.4075  -0.3843  -0.3843  -0.3249  -0.3249
    -0.2012  -0.2012  -0.1537  -0.1025  -0.1025  -0.0516  -0.0516  -0.0429
    -0.0429   0.2628   0.3309   0.3309   0.3970   0.3970   0.5632   0.5870
     2.3279   2.6116   2.6181   2.6181   2.7102   2.7102   2.7790   2.7790
     2.8222   2.8222   2.8340   2.8423   2.8423   2.9586   2.9586   3.0835
     3.0835   3.0900   3.0900   3.1243   3.1243   3.1389   3.1786   3.1893
     3.1893   3.2126   3.2126   3.2171   3.2628   3.2628   3.2919   3.2919
     3.4204   3.4387   3.5272   3.6977   3.6977   3.7117   3.7350   3.9576
     3.9576   3.9810   3.9810   4.0070   4.0070   4.0388   4.0388   4.1206
     4.2770   4.2770   4.3604   4.7079

          k = 0.2500 0.4330 0.0000 (126379 PWs)   bands (ev):

   -60.2506 -60.2457 -60.2457 -60.2339 -60.2339 -60.2280 -60.2260 -60.2260
   -60.2221 -60.2221 -60.2211 -60.2211 -60.2172 -60.2162 -60.2162 -60.2141
   -34.5295 -34.5136 -34.5136 -34.5077 -34.5077 -34.4869 -34.4869 -34.4668
   -34.4668 -34.4656 -34.4271 -34.4047 -34.3827 -34.3827 -34.3735 -34.3637
   -34.3637 -34.3400 -34.3400 -34.3369 -34.3369 -34.3281 -34.3240 -34.3240
   -34.3161 -34.3161 -34.3141 -34.3141 -34.3062 -34.3043 -34.3043 -34.3024
   -34.3002 -34.2858 -34.2858 -34.2748 -34.2748 -34.2736 -34.2702 -34.2702
   -34.2579 -34.2578 -34.2459 -34.2459 -34.2262 -34.2077 -34.2077 -34.1952
   -13.2458 -13.0319 -13.0319 -12.4697 -12.4697 -12.1607 -12.0422 -12.0422
   -12.0382 -11.9509 -11.9509 -11.8156 -11.8155 -11.7490 -11.7490 -11.7212
   -11.7212 -11.5936 -11.5528 -11.5528 -11.5039 -11.4570 -11.4570 -11.4513
   -11.4513 -11.4391 -11.4391 -11.3341 -11.3292 -11.2987 -11.2987 -11.2307
    -4.8609  -4.8457  -4.8457  -4.7424  -4.6917  -4.6236  -4.6236  -4.5931
    -4.5931  -4.5819  -4.5819  -4.5282  -4.5282  -4.4281  -4.4281  -4.3193
    -4.2755  -4.2550  -4.2549  -4.0293  -3.9299  -3.9299  -3.8725  -3.8725
    -3.5824  -3.5824  -3.3353  -3.3252  -3.2854  -3.2854  -3.2683  -3.2378
    -3.2378  -3.2175  -3.2175  -3.1697  -3.1697  -3.1642  -3.1642  -3.1111
    -2.9033  -2.9033  -2.8642  -2.7034  -2.7034  -2.6165  -2.5388  -2.5388
    -2.5045  -2.4585  -2.4585  -2.4517  -2.4517  -2.3727  -2.3727  -2.3452
    -2.3452  -2.3353  -2.2422  -2.1915  -2.1915  -1.9299  -1.9299  -1.7982
    -1.7776  -1.5890  -1.5890  -1.5219  -1.5219  -1.4601  -1.4334  -1.3168
    -1.3168  -1.2770  -1.2770  -1.2488  -1.2092  -1.2092  -1.1854  -1.1713
    -1.0784  -1.0784  -0.9074  -0.9074  -0.8957  -0.8957  -0.8947  -0.8947
    -0.7661  -0.7660  -0.4953  -0.4189  -0.3887  -0.3887  -0.3287  -0.3287
    -0.2104  -0.2104  -0.1521  -0.0994  -0.0994  -0.0465  -0.0465  -0.0379
    -0.0379   0.2563   0.3289   0.3289   0.3869   0.3869   0.5714   0.5781
     2.3386   2.6181   2.6235   2.6235   2.7081   2.7081   2.7777   2.7777
     2.8242   2.8242   2.8408   2.8441   2.8441   2.9489   2.9489   3.0754
     3.0754   3.0875   3.0875   3.1286   3.1286   3.1425   3.1869   3.1933
     3.1933   3.2201   3.2201   3.2370   3.2554   3.2554   3.2952   3.2952
     3.4336   3.4506   3.5148   3.6926   3.6977   3.6977   3.7374   3.9440
     3.9440   3.9693   3.9693   4.0190   4.0190   4.0258   4.0258   4.1098
     4.2959   4.2959   4.3846   4.6965

          k = 0.2417 0.4186 0.0000 (126381 PWs)   bands (ev):

   -60.2508 -60.2455 -60.2454 -60.2341 -60.2341 -60.2276 -60.2263 -60.2263
   -60.2220 -60.2220 -60.2209 -60.2209 -60.2172 -60.2162 -60.2162 -60.2142
   -34.5305 -34.5156 -34.5156 -34.5066 -34.5066 -34.4865 -34.4865 -34.4668
   -34.4641 -34.4641 -34.4298 -34.4028 -34.3816 -34.3816 -34.3740 -34.3632
   -34.3632 -34.3403 -34.3403 -34.3378 -34.3378 -34.3274 -34.3247 -34.3247
   -34.3159 -34.3159 -34.3138 -34.3138 -34.3064 -34.3043 -34.3043 -34.3004
   -34.3003 -34.2876 -34.2876 -34.2772 -34.2772 -34.2755 -34.2702 -34.2702
   -34.2567 -34.2566 -34.2450 -34.2450 -34.2236 -34.2082 -34.2082 -34.1945
   -13.2567 -13.0214 -13.0214 -12.4781 -12.4781 -12.1397 -12.0606 -12.0606
   -12.0427 -11.9466 -11.9466 -11.8096 -11.8096 -11.7384 -11.7384 -11.7247
   -11.7247 -11.5848 -11.5602 -11.5602 -11.5082 -11.4541 -11.4541 -11.4527
   -11.4527 -11.4353 -11.4353 -11.3367 -11.3326 -11.2989 -11.2989 -11.2324
    -4.8752  -4.8598  -4.8598  -4.7542  -4.6854  -4.6159  -4.6159  -4.5827
    -4.5827  -4.5696  -4.5696  -4.5190  -4.5190  -4.4286  -4.4286  -4.3272
    -4.2647  -4.2569  -4.2569  -4.0484  -3.9410  -3.9410  -3.8820  -3.8820
    -3.5605  -3.5605  -3.3691  -3.3294  -3.2917  -3.2917  -3.2480  -3.2307
    -3.2307  -3.2179  -3.2179  -3.1697  -3.1696  -3.1571  -3.1571  -3.1034
    -2.8992  -2.8992  -2.8574  -2.7193  -2.7193  -2.6224  -2.5454  -2.5454
    -2.5068  -2.4599  -2.4599  -2.4519  -2.4519  -2.3520  -2.3520  -2.3313
    -2.3313  -2.3141  -2.2502  -2.2114  -2.2114  -1.9521  -1.9521  -1.8092
    -1.7517  -1.5785  -1.5785  -1.5316  -1.5316  -1.4792  -1.4237  -1.3520
    -1.3520  -1.2712  -1.2712  -1.2060  -1.2060  -1.2051  -1.1843  -1.1514
    -1.0877  -1.0877  -0.9033  -0.9033  -0.8900  -0.8900  -0.8896  -0.8895
    -0.7443  -0.7443  -0.5078  -0.4306  -0.3940  -0.3940  -0.3333  -0.3332
    -0.2190  -0.2190  -0.1499  -0.0963  -0.0963  -0.0414  -0.0414  -0.0330
    -0.0330   0.2497   0.3263   0.3263   0.3765   0.3765   0.5684   0.5792
     2.3502   2.6255   2.6293   2.6293   2.7066   2.7066   2.7769   2.7769
     2.8262   2.8262   2.8457   2.8457   2.8470   2.9394   2.9394   3.0672
     3.0673   3.0849   3.0849   3.1337   3.1337   3.1460   3.1955   3.1973
     3.1973   3.2277   3.2277   3.2478   3.2478   3.2570   3.2995   3.2995
     3.4469   3.4622   3.5028   3.6739   3.6969   3.6969   3.7399   3.9305
     3.9306   3.9574   3.9574   4.0129   4.0129   4.0310   4.0310   4.0979
     4.3141   4.3141   4.4087   4.6849

          k = 0.2333 0.4041 0.0000 (126357 PWs)   bands (ev):

   -60.2511 -60.2452 -60.2452 -60.2342 -60.2342 -60.2273 -60.2266 -60.2266
   -60.2219 -60.2218 -60.2208 -60.2208 -60.2173 -60.2162 -60.2162 -60.2143
   -34.5316 -34.5176 -34.5176 -34.5055 -34.5055 -34.4860 -34.4860 -34.4680
   -34.4613 -34.4613 -34.4326 -34.4009 -34.3806 -34.3806 -34.3745 -34.3628
   -34.3627 -34.3406 -34.3406 -34.3388 -34.3388 -34.3266 -34.3254 -34.3253
   -34.3157 -34.3157 -34.3135 -34.3135 -34.3065 -34.3044 -34.3043 -34.3004
   -34.2984 -34.2894 -34.2894 -34.2797 -34.2797 -34.2775 -34.2701 -34.2701
   -34.2555 -34.2555 -34.2440 -34.2440 -34.2212 -34.2087 -34.2087 -34.1939
   -13.2672 -13.0106 -13.0106 -12.4862 -12.4862 -12.1186 -12.0792 -12.0792
   -12.0470 -11.9422 -11.9422 -11.8036 -11.8036 -11.7281 -11.7281 -11.7281
   -11.7281 -11.5761 -11.5676 -11.5676 -11.5124 -11.4544 -11.4544 -11.4512
   -11.4511 -11.4316 -11.4316 -11.3392 -11.3365 -11.2992 -11.2992 -11.2344
    -4.8891  -4.8737  -4.8737  -4.7657  -4.6786  -4.6080  -4.6080  -4.5723
    -4.5723  -4.5572  -4.5572  -4.5096  -4.5096  -4.4286  -4.4286  -4.3352
    -4.2590  -4.2590  -4.2540  -4.0677  -3.9517  -3.9517  -3.8918  -3.8918
    -3.5385  -3.5385  -3.4030  -3.3334  -3.2979  -3.2979  -3.2274  -3.2230
    -3.2230  -3.2183  -3.2183  -3.1695  -3.1695  -3.1499  -3.1499  -3.0956
    -2.8959  -2.8959  -2.8498  -2.7355  -2.7355  -2.6276  -2.5516  -2.5516
    -2.5089  -2.4616  -2.4616  -2.4523  -2.4523  -2.3305  -2.3305  -2.3170
    -2.3170  -2.2932  -2.2588  -2.2320  -2.2320  -1.9741  -1.9741  -1.8198
    -1.7256  -1.5677  -1.5677  -1.5411  -1.5411  -1.4992  -1.4134  -1.3875
    -1.3874  -1.2654  -1.2654  -1.2022  -1.2022  -1.1834  -1.1618  -1.1322
    -1.0966  -1.0966  -0.9000  -0.9000  -0.8857  -0.8857  -0.8835  -0.8834
    -0.7227  -0.7227  -0.5207  -0.4429  -0.4002  -0.4002  -0.3386  -0.3386
    -0.2268  -0.2268  -0.1470  -0.0933  -0.0933  -0.0364  -0.0364  -0.0283
    -0.0283   0.2431   0.3232   0.3232   0.3656   0.3656   0.5579   0.5866
     2.3628   2.6337   2.6355   2.6355   2.7055   2.7055   2.7766   2.7766
     2.8283   2.8283   2.8471   2.8471   2.8525   2.9301   2.9301   3.0591
     3.0591   3.0822   3.0822   3.1395   3.1395   3.1495   3.2015   3.2016
     3.2042   3.2354   3.2354   3.2402   3.2402   3.2770   3.3045   3.3045
     3.4601   3.4736   3.4915   3.6557   3.6952   3.6952   3.7424   3.9174
     3.9174   3.9455   3.9455   3.9999   3.9999   4.0430   4.0430   4.0848
     4.3314   4.3314   4.4326   4.6731

          k = 0.2250 0.3897 0.0000 (126359 PWs)   bands (ev):

   -60.2513 -60.2450 -60.2450 -60.2344 -60.2344 -60.2270 -60.2270 -60.2269
   -60.2217 -60.2217 -60.2206 -60.2206 -60.2174 -60.2162 -60.2162 -60.2143
   -34.5326 -34.5195 -34.5195 -34.5044 -34.5044 -34.4856 -34.4856 -34.4692
   -34.4584 -34.4584 -34.4352 -34.3989 -34.3796 -34.3796 -34.3750 -34.3623
   -34.3622 -34.3409 -34.3409 -34.3396 -34.3396 -34.3260 -34.3260 -34.3258
   -34.3155 -34.3155 -34.3132 -34.3132 -34.3067 -34.3044 -34.3044 -34.3006
   -34.2964 -34.2912 -34.2912 -34.2822 -34.2822 -34.2794 -34.2701 -34.2701
   -34.2543 -34.2543 -34.2430 -34.2430 -34.2188 -34.2093 -34.2093 -34.1933
   -13.2774 -12.9994 -12.9994 -12.4940 -12.4940 -12.0978 -12.0978 -12.0977
   -12.0511 -11.9377 -11.9376 -11.7974 -11.7974 -11.7313 -11.7313 -11.7181
   -11.7181 -11.5751 -11.5751 -11.5674 -11.5164 -11.4565 -11.4565 -11.4481
   -11.4481 -11.4280 -11.4280 -11.3417 -11.3407 -11.2996 -11.2996 -11.2364
    -4.9026  -4.8872  -4.8872  -4.7768  -4.6711  -4.6001  -4.6001  -4.5621
    -4.5621  -4.5447  -4.5447  -4.5002  -4.5002  -4.4281  -4.4281  -4.3432
    -4.2613  -4.2613  -4.2437  -4.0870  -3.9620  -3.9620  -3.9020  -3.9020
    -3.5164  -3.5164  -3.4367  -3.3374  -3.3040  -3.3040  -3.2188  -3.2188
    -3.2148  -3.2148  -3.2067  -3.1692  -3.1692  -3.1425  -3.1425  -3.0877
    -2.8933  -2.8933  -2.8415  -2.7519  -2.7519  -2.6321  -2.5574  -2.5574
    -2.5108  -2.4634  -2.4634  -2.4532  -2.4532  -2.3083  -2.3083  -2.3022
    -2.3022  -2.2728  -2.2679  -2.2530  -2.2530  -1.9958  -1.9958  -1.8301
    -1.6995  -1.5565  -1.5565  -1.5503  -1.5503  -1.5199  -1.4231  -1.4231
    -1.4023  -1.2595  -1.2595  -1.1980  -1.1980  -1.1827  -1.1190  -1.1137
    -1.1050  -1.1050  -0.8976  -0.8976  -0.8819  -0.8819  -0.8774  -0.8773
    -0.7013  -0.7013  -0.5338  -0.4556  -0.4072  -0.4072  -0.3448  -0.3447
    -0.2339  -0.2339  -0.1436  -0.0904  -0.0904  -0.0316  -0.0316  -0.0236
    -0.0236   0.2364   0.3196   0.3196   0.3544   0.3544   0.5467   0.5936
     2.3761   2.6420   2.6420   2.6426   2.7049   2.7049   2.7768   2.7768
     2.8304   2.8304   2.8483   2.8483   2.8575   2.9210   2.9210   3.0509
     3.0510   3.0793   3.0793   3.1462   3.1462   3.1530   3.2059   3.2059
     3.2132   3.2324   3.2324   3.2432   3.2432   3.2970   3.3104   3.3104
     3.4733   3.4807   3.4847   3.6379   3.6928   3.6928   3.7450   3.9044
     3.9044   3.9333   3.9333   3.9870   3.9870   4.0551   4.0551   4.0707
     4.3479   4.3479   4.4560   4.6611

          k = 0.2167 0.3753 0.0000 (126385 PWs)   bands (ev):

   -60.2515 -60.2447 -60.2447 -60.2345 -60.2345 -60.2273 -60.2273 -60.2265
   -60.2216 -60.2216 -60.2205 -60.2204 -60.2174 -60.2163 -60.2163 -60.2144
   -34.5336 -34.5214 -34.5214 -34.5032 -34.5032 -34.4851 -34.4851 -34.4703
   -34.4555 -34.4555 -34.4378 -34.3968 -34.3787 -34.3787 -34.3755 -34.3618
   -34.3617 -34.3412 -34.3412 -34.3404 -34.3404 -34.3267 -34.3267 -34.3251
   -34.3153 -34.3153 -34.3129 -34.3129 -34.3068 -34.3045 -34.3045 -34.3007
   -34.2945 -34.2930 -34.2930 -34.2848 -34.2848 -34.2814 -34.2700 -34.2700
   -34.2531 -34.2531 -34.2421 -34.2421 -34.2164 -34.2098 -34.2098 -34.1927
   -13.2872 -12.9880 -12.9880 -12.5016 -12.5016 -12.1165 -12.1165 -12.0769
   -12.0551 -11.9330 -11.9330 -11.7910 -11.7910 -11.7345 -11.7345 -11.7083
   -11.7083 -11.5825 -11.5825 -11.5588 -11.5204 -11.4588 -11.4588 -11.4450
   -11.4450 -11.4245 -11.4245 -11.3453 -11.3442 -11.3002 -11.3002 -11.2387
    -4.9156  -4.9004  -4.9004  -4.7877  -4.6630  -4.5921  -4.5921  -4.5520
    -4.5520  -4.5322  -4.5322  -4.4907  -4.4907  -4.4270  -4.4270  -4.3511
    -4.2638  -4.2638  -4.2335  -4.1064  -3.9719  -3.9719  -3.9125  -3.9125
    -3.4943  -3.4943  -3.4704  -3.3413  -3.3100  -3.3100  -3.2194  -3.2194
    -3.2060  -3.2060  -3.1861  -3.1689  -3.1688  -3.1349  -3.1349  -3.0797
    -2.8912  -2.8912  -2.8323  -2.7685  -2.7685  -2.6360  -2.5628  -2.5628
    -2.5124  -2.4653  -2.4653  -2.4543  -2.4543  -2.2869  -2.2869  -2.2856
    -2.2856  -2.2774  -2.2745  -2.2745  -2.2529  -2.0173  -2.0173  -1.8402
    -1.6734  -1.5593  -1.5593  -1.5450  -1.5450  -1.5415  -1.4588  -1.4588
    -1.3906  -1.2536  -1.2536  -1.1932  -1.1932  -1.1822  -1.1129  -1.1129
    -1.0958  -1.0767  -0.8960  -0.8960  -0.8786  -0.8786  -0.8712  -0.8712
    -0.6801  -0.6801  -0.5472  -0.4688  -0.4150  -0.4150  -0.3516  -0.3516
    -0.2401  -0.2401  -0.1395  -0.0877  -0.0877  -0.0269  -0.0269  -0.0191
    -0.0191   0.2297   0.3155   0.3155   0.3427   0.3427   0.5347   0.6002
     2.3903   2.6490   2.6490   2.6523   2.7048   2.7048   2.7776   2.7776
     2.8325   2.8326   2.8493   2.8493   2.8618   2.9121   2.9121   3.0428
     3.0428   3.0764   3.0764   3.1536   3.1536   3.1564   3.2104   3.2105
     3.2223   3.2246   3.2246   3.2510   3.2510   3.3169   3.3171   3.3171
     3.4705   3.4865   3.4956   3.6207   3.6896   3.6896   3.7477   3.8918
     3.8918   3.9211   3.9211   3.9742   3.9742   4.0555   4.0671   4.0672
     4.3635   4.3635   4.4789   4.6489

          k = 0.2083 0.3608 0.0000 (126379 PWs)   bands (ev):

   -60.2518 -60.2445 -60.2444 -60.2347 -60.2347 -60.2276 -60.2276 -60.2261
   -60.2215 -60.2215 -60.2203 -60.2203 -60.2175 -60.2163 -60.2163 -60.2145
   -34.5345 -34.5232 -34.5232 -34.5020 -34.5020 -34.4847 -34.4847 -34.4714
   -34.4526 -34.4526 -34.4403 -34.3948 -34.3779 -34.3779 -34.3759 -34.3612
   -34.3612 -34.3415 -34.3415 -34.3412 -34.3412 -34.3274 -34.3274 -34.3243
   -34.3150 -34.3150 -34.3126 -34.3126 -34.3070 -34.3045 -34.3045 -34.3009
   -34.2949 -34.2949 -34.2927 -34.2875 -34.2875 -34.2834 -34.2700 -34.2700
   -34.2520 -34.2520 -34.2411 -34.2411 -34.2142 -34.2104 -34.2104 -34.1922
   -13.2967 -12.9763 -12.9763 -12.5090 -12.5090 -12.1353 -12.1353 -12.0590
   -12.0561 -11.9282 -11.9282 -11.7846 -11.7846 -11.7376 -11.7376 -11.6988
   -11.6988 -11.5900 -11.5900 -11.5501 -11.5242 -11.4615 -11.4615 -11.4419
   -11.4419 -11.4211 -11.4211 -11.3502 -11.3465 -11.3009 -11.3009 -11.2411
    -4.9281  -4.9133  -4.9133  -4.7982  -4.6543  -4.5841  -4.5841  -4.5421
    -4.5421  -4.5197  -4.5197  -4.4812  -4.4811  -4.4254  -4.4254  -4.3590
    -4.2665  -4.2665  -4.2237  -4.1256  -3.9814  -3.9814  -3.9233  -3.9233
    -3.5039  -3.4722  -3.4722  -3.3451  -3.3159  -3.3159  -3.2201  -3.2201
    -3.1967  -3.1967  -3.1684  -3.1684  -3.1658  -3.1271  -3.1271  -3.0717
    -2.8897  -2.8897  -2.8221  -2.7852  -2.7852  -2.6392  -2.5677  -2.5677
    -2.5137  -2.4674  -2.4674  -2.4558  -2.4558  -2.2965  -2.2965  -2.2874
    -2.2713  -2.2713  -2.2625  -2.2625  -2.2335  -2.0384  -2.0384  -1.8498
    -1.6472  -1.5681  -1.5681  -1.5637  -1.5331  -1.5331  -1.4946  -1.4946
    -1.3783  -1.2477  -1.2477  -1.1879  -1.1879  -1.1820  -1.1204  -1.1204
    -1.0787  -1.0350  -0.8954  -0.8954  -0.8757  -0.8757  -0.8651  -0.8651
    -0.6592  -0.6592  -0.5608  -0.4824  -0.4236  -0.4236  -0.3592  -0.3592
    -0.2454  -0.2453  -0.1349  -0.0850  -0.0850  -0.0223  -0.0223  -0.0146
    -0.0146   0.2228   0.3109   0.3109   0.3306   0.3306   0.5221   0.6064
     2.4052   2.6562   2.6562   2.6626   2.7052   2.7052   2.7789   2.7789
     2.8346   2.8346   2.8503   2.8503   2.8656   2.9035   2.9035   3.0347
     3.0347   3.0733   3.0733   3.1598   3.1618   3.1618   3.2152   3.2152
     3.2166   3.2166   3.2315   3.2587   3.2587   3.3245   3.3245   3.3367
     3.4609   3.4997   3.5061   3.6040   3.6857   3.6857   3.7504   3.8795
     3.8795   3.9086   3.9086   3.9615   3.9615   4.0392   4.0793   4.0793
     4.3782   4.3782   4.5010   4.6365

          k = 0.2000 0.3464 0.0000 (126387 PWs)   bands (ev):

   -60.2520 -60.2442 -60.2442 -60.2348 -60.2348 -60.2280 -60.2280 -60.2258
   -60.2214 -60.2214 -60.2202 -60.2202 -60.2176 -60.2164 -60.2163 -60.2146
   -34.5354 -34.5249 -34.5249 -34.5008 -34.5008 -34.4843 -34.4842 -34.4725
   -34.4496 -34.4496 -34.4428 -34.3926 -34.3770 -34.3770 -34.3763 -34.3607
   -34.3607 -34.3419 -34.3419 -34.3418 -34.3418 -34.3281 -34.3280 -34.3236
   -34.3148 -34.3148 -34.3123 -34.3123 -34.3071 -34.3046 -34.3046 -34.3010
   -34.2968 -34.2967 -34.2909 -34.2902 -34.2902 -34.2854 -34.2699 -34.2699
   -34.2508 -34.2508 -34.2402 -34.2402 -34.2120 -34.2109 -34.2109 -34.1916
   -13.3059 -12.9643 -12.9643 -12.5161 -12.5160 -12.1541 -12.1541 -12.0628
   -12.0355 -11.9234 -11.9234 -11.7780 -11.7780 -11.7406 -11.7406 -11.6895
   -11.6895 -11.5976 -11.5976 -11.5415 -11.5279 -11.4645 -11.4645 -11.4387
   -11.4387 -11.4178 -11.4178 -11.3556 -11.3488 -11.3018 -11.3018 -11.2437
    -4.9402  -4.9259  -4.9259  -4.8084  -4.6450  -4.5761  -4.5761  -4.5325
    -4.5325  -4.5072  -4.5072  -4.4716  -4.4716  -4.4233  -4.4233  -4.3667
    -4.2693  -4.2693  -4.2142  -4.1446  -3.9905  -3.9905  -3.9344  -3.9344
    -3.5372  -3.4500  -3.4499  -3.3488  -3.3216  -3.3216  -3.2208  -3.2208
    -3.1869  -3.1869  -3.1679  -3.1679  -3.1461  -3.1191  -3.1191  -3.0637
    -2.8886  -2.8886  -2.8110  -2.8021  -2.8021  -2.6419  -2.5721  -2.5721
    -2.5149  -2.4696  -2.4696  -2.4575  -2.4575  -2.3188  -2.3188  -2.2976
    -2.2553  -2.2553  -2.2390  -2.2390  -2.2145  -2.0591  -2.0591  -1.8592
    -1.6209  -1.5866  -1.5769  -1.5769  -1.5305  -1.5305  -1.5209  -1.5209
    -1.3654  -1.2418  -1.2418  -1.1821  -1.1821  -1.1819  -1.1275  -1.1275
    -1.0622  -0.9938  -0.8957  -0.8957  -0.8734  -0.8734  -0.8589  -0.8589
    -0.6386  -0.6386  -0.5748  -0.4965  -0.4328  -0.4328  -0.3675  -0.3675
    -0.2496  -0.2496  -0.1297  -0.0824  -0.0824  -0.0180  -0.0180  -0.0102
    -0.0102   0.2157   0.3059   0.3059   0.3182   0.3182   0.5088   0.6123
     2.4207   2.6638   2.6638   2.6736   2.7060   2.7060   2.7807   2.7807
     2.8367   2.8367   2.8511   2.8511   2.8687   2.8953   2.8953   3.0267
     3.0267   3.0702   3.0702   3.1632   3.1707   3.1707   3.2085   3.2085
     3.2202   3.2202   3.2408   3.2664   3.2664   3.3326   3.3326   3.3563
     3.4519   3.5127   3.5163   3.5878   3.6810   3.6810   3.7530   3.8676
     3.8676   3.8961   3.8961   3.9489   3.9489   4.0219   4.0914   4.0914
     4.3920   4.3920   4.5218   4.6241

          k = 0.1917 0.3320 0.0000 (126345 PWs)   bands (ev):

   -60.2522 -60.2439 -60.2439 -60.2350 -60.2349 -60.2283 -60.2283 -60.2254
   -60.2213 -60.2213 -60.2200 -60.2200 -60.2176 -60.2164 -60.2164 -60.2147
   -34.5363 -34.5266 -34.5266 -34.4997 -34.4997 -34.4838 -34.4838 -34.4736
   -34.4465 -34.4465 -34.4452 -34.3905 -34.3768 -34.3763 -34.3763 -34.3602
   -34.3601 -34.3426 -34.3426 -34.3421 -34.3421 -34.3288 -34.3287 -34.3229
   -34.3146 -34.3146 -34.3120 -34.3120 -34.3072 -34.3047 -34.3047 -34.3012
   -34.2986 -34.2986 -34.2930 -34.2930 -34.2892 -34.2874 -34.2699 -34.2699
   -34.2497 -34.2497 -34.2393 -34.2393 -34.2115 -34.2115 -34.2099 -34.1911
   -13.3147 -12.9520 -12.9520 -12.5229 -12.5229 -12.1730 -12.1730 -12.0664
   -12.0150 -11.9184 -11.9184 -11.7713 -11.7713 -11.7434 -11.7434 -11.6806
   -11.6806 -11.6051 -11.6051 -11.5330 -11.5315 -11.4677 -11.4677 -11.4354
   -11.4354 -11.4146 -11.4146 -11.3613 -11.3510 -11.3028 -11.3028 -11.2465
    -4.9518  -4.9380  -4.9380  -4.8182  -4.6351  -4.5681  -4.5681  -4.5231
    -4.5231  -4.4948  -4.4948  -4.4621  -4.4621  -4.4207  -4.4207  -4.3742
    -4.2722  -4.2722  -4.2049  -4.1632  -3.9992  -3.9992  -3.9458  -3.9458
    -3.5703  -3.4277  -3.4277  -3.3524  -3.3272  -3.3272  -3.2215  -3.2215
    -3.1766  -3.1766  -3.1674  -3.1674  -3.1270  -3.1109  -3.1109  -3.0557
    -2.8879  -2.8879  -2.8191  -2.8191  -2.7987  -2.6440  -2.5761  -2.5761
    -2.5158  -2.4719  -2.4719  -2.4596  -2.4596  -2.3415  -2.3415  -2.3082
    -2.2389  -2.2389  -2.2152  -2.2152  -2.1962  -2.0794  -2.0794  -1.8682
    -1.6102  -1.5947  -1.5855  -1.5855  -1.5664  -1.5663  -1.5084  -1.5084
    -1.3520  -1.2360  -1.2360  -1.1820  -1.1759  -1.1759  -1.1342  -1.1342
    -1.0465  -0.9533  -0.8971  -0.8971  -0.8715  -0.8715  -0.8527  -0.8527
    -0.6184  -0.6184  -0.5890  -0.5110  -0.4427  -0.4427  -0.3765  -0.3765
    -0.2529  -0.2529  -0.1241  -0.0800  -0.0800  -0.0138  -0.0138  -0.0058
    -0.0058   0.2085   0.3005   0.3005   0.3053   0.3053   0.4950   0.6178
     2.4368   2.6716   2.6716   2.6851   2.7072   2.7072   2.7829   2.7829
     2.8386   2.8386   2.8518   2.8518   2.8713   2.8874   2.8874   3.0187
     3.0187   3.0669   3.0669   3.1666   3.1804   3.1804   3.2003   3.2003
     3.2254   3.2254   3.2501   3.2740   3.2740   3.3413   3.3413   3.3758
     3.4436   3.5257   3.5262   3.5721   3.6757   3.6757   3.7557   3.8561
     3.8561   3.8833   3.8833   3.9365   3.9365   4.0037   4.1036   4.1036
     4.4048   4.4048   4.5408   4.6115

          k = 0.1833 0.3175 0.0000 (126331 PWs)   bands (ev):

   -60.2524 -60.2437 -60.2436 -60.2351 -60.2351 -60.2287 -60.2287 -60.2250
   -60.2212 -60.2212 -60.2199 -60.2199 -60.2177 -60.2164 -60.2164 -60.2147
   -34.5371 -34.5282 -34.5282 -34.4985 -34.4985 -34.4834 -34.4834 -34.4746
   -34.4476 -34.4435 -34.4434 -34.3883 -34.3772 -34.3755 -34.3755 -34.3596
   -34.3596 -34.3432 -34.3432 -34.3424 -34.3424 -34.3294 -34.3294 -34.3221
   -34.3143 -34.3143 -34.3117 -34.3117 -34.3073 -34.3048 -34.3048 -34.3014
   -34.3006 -34.3005 -34.2958 -34.2958 -34.2895 -34.2875 -34.2698 -34.2698
   -34.2486 -34.2486 -34.2384 -34.2384 -34.2121 -34.2121 -34.2079 -34.1906
   -13.3231 -12.9395 -12.9394 -12.5294 -12.5294 -12.1920 -12.1920 -12.0698
   -11.9947 -11.9133 -11.9132 -11.7645 -11.7645 -11.7462 -11.7462 -11.6720
   -11.6720 -11.6127 -11.6127 -11.5350 -11.5245 -11.4712 -11.4712 -11.4322
   -11.4321 -11.4116 -11.4116 -11.3674 -11.3532 -11.3039 -11.3039 -11.2495
    -4.9630  -4.9498  -4.9498  -4.8276  -4.6245  -4.5602  -4.5602  -4.5140
    -4.5140  -4.4825  -4.4825  -4.4526  -4.4525  -4.4176  -4.4176  -4.3815
    -4.2752  -4.2752  -4.1960  -4.1815  -4.0076  -4.0076  -3.9575  -3.9575
    -3.6032  -3.4054  -3.4054  -3.3559  -3.3327  -3.3326  -3.2221  -3.2221
    -3.1668  -3.1668  -3.1657  -3.1657  -3.1088  -3.1026  -3.1026  -3.0479
    -2.8875  -2.8875  -2.8362  -2.8362  -2.7852  -2.6455  -2.5796  -2.5796
    -2.5166  -2.4743  -2.4743  -2.4620  -2.4620  -2.3645  -2.3645  -2.3191
    -2.2222  -2.2222  -2.1914  -2.1914  -2.1783  -2.0993  -2.0993  -1.8769
    -1.6343  -1.6022  -1.6022  -1.5941  -1.5941  -1.5684  -1.4956  -1.4956
    -1.3381  -1.2303  -1.2303  -1.1823  -1.1693  -1.1693  -1.1404  -1.1404
    -1.0314  -0.9134  -0.8994  -0.8994  -0.8702  -0.8702  -0.8464  -0.8464
    -0.6034  -0.5986  -0.5986  -0.5259  -0.4532  -0.4532  -0.3860  -0.3860
    -0.2550  -0.2550  -0.1179  -0.0777  -0.0777  -0.0098  -0.0098  -0.0014
    -0.0014   0.2011   0.2921   0.2921   0.2946   0.2946   0.4807   0.6230
     2.4535   2.6797   2.6797   2.6970   2.7089   2.7089   2.7856   2.7856
     2.8403   2.8403   2.8525   2.8525   2.8734   2.8798   2.8799   3.0109
     3.0109   3.0635   3.0635   3.1700   3.1908   3.1908   3.1919   3.1920
     3.2309   3.2309   3.2595   3.2815   3.2815   3.3505   3.3505   3.3949
     3.4358   3.5358   3.5385   3.5571   3.6697   3.6697   3.7582   3.8450
     3.8451   3.8703   3.8703   3.9243   3.9243   3.9845   4.1158   4.1158
     4.4166   4.4166   4.5573   4.5989

          k = 0.1750 0.3031 0.0000 (126349 PWs)   bands (ev):

   -60.2526 -60.2434 -60.2434 -60.2352 -60.2352 -60.2290 -60.2290 -60.2247
   -60.2211 -60.2210 -60.2198 -60.2198 -60.2178 -60.2165 -60.2165 -60.2148
   -34.5379 -34.5298 -34.5298 -34.4973 -34.4973 -34.4830 -34.4830 -34.4756
   -34.4498 -34.4403 -34.4403 -34.3861 -34.3775 -34.3748 -34.3748 -34.3590
   -34.3590 -34.3437 -34.3437 -34.3426 -34.3426 -34.3301 -34.3301 -34.3214
   -34.3141 -34.3141 -34.3115 -34.3115 -34.3075 -34.3049 -34.3049 -34.3025
   -34.3025 -34.3016 -34.2987 -34.2987 -34.2915 -34.2859 -34.2698 -34.2698
   -34.2475 -34.2475 -34.2375 -34.2375 -34.2127 -34.2127 -34.2059 -34.1902
   -13.3312 -12.9266 -12.9266 -12.5357 -12.5357 -12.2110 -12.2110 -12.0731
   -11.9745 -11.9080 -11.9080 -11.7576 -11.7576 -11.7488 -11.7488 -11.6637
   -11.6637 -11.6203 -11.6203 -11.5384 -11.5160 -11.4751 -11.4750 -11.4288
   -11.4288 -11.4086 -11.4086 -11.3739 -11.3552 -11.3052 -11.3052 -11.2526
    -4.9737  -4.9612  -4.9612  -4.8367  -4.6133  -4.5523  -4.5523  -4.5053
    -4.5053  -4.4703  -4.4703  -4.4431  -4.4431  -4.4139  -4.4139  -4.3886
    -4.2782  -4.2782  -4.1994  -4.1874  -4.0155  -4.0155  -3.9694  -3.9694
    -3.6359  -3.3830  -3.3830  -3.3593  -3.3379  -3.3379  -3.2227  -3.2227
    -3.1662  -3.1662  -3.1544  -3.1544  -3.0942  -3.0942  -3.0915  -3.0401
    -2.8874  -2.8874  -2.8533  -2.8533  -2.7705  -2.6464  -2.5827  -2.5827
    -2.5171  -2.4767  -2.4767  -2.4647  -2.4647  -2.3878  -2.3878  -2.3301
    -2.2052  -2.2052  -2.1675  -2.1675  -2.1611  -2.1187  -2.1187  -1.8852
    -1.6589  -1.6379  -1.6379  -1.6027  -1.6027  -1.5422  -1.4825  -1.4825
    -1.3238  -1.2246  -1.2246  -1.1827  -1.1622  -1.1622  -1.1462  -1.1462
    -1.0170  -0.9029  -0.9029  -0.8742  -0.8694  -0.8694  -0.8400  -0.8400
    -0.6181  -0.5793  -0.5793  -0.5413  -0.4642  -0.4642  -0.3961  -0.3961
    -0.2560  -0.2560  -0.1113  -0.0755  -0.0755  -0.0060  -0.0060   0.0030
     0.0030   0.1934   0.2785   0.2785   0.2884   0.2884   0.4659   0.6278
     2.4705   2.6880   2.6880   2.7094   2.7110   2.7110   2.7887   2.7887
     2.8419   2.8419   2.8531   2.8531   2.8727   2.8727   2.8749   3.0032
     3.0032   3.0601   3.0601   3.1736   3.1835   3.1835   3.2018   3.2018
     3.2366   3.2367   3.2688   3.2889   3.2889   3.3602   3.3602   3.4137
     3.4286   3.5426   3.5450   3.5512   3.6631   3.6631   3.7607   3.8345
     3.8345   3.8572   3.8572   3.9123   3.9123   3.9644   4.1281   4.1281
     4.4274   4.4274   4.5703   4.5862

          k = 0.1667 0.2887 0.0000 (126343 PWs)   bands (ev):

   -60.2528 -60.2431 -60.2431 -60.2353 -60.2353 -60.2294 -60.2294 -60.2243
   -60.2209 -60.2209 -60.2196 -60.2196 -60.2178 -60.2166 -60.2165 -60.2150
   -34.5387 -34.5313 -34.5313 -34.4961 -34.4961 -34.4826 -34.4826 -34.4765
   -34.4520 -34.4372 -34.4372 -34.3839 -34.3779 -34.3742 -34.3742 -34.3585
   -34.3585 -34.3442 -34.3442 -34.3429 -34.3429 -34.3308 -34.3308 -34.3207
   -34.3139 -34.3138 -34.3112 -34.3112 -34.3076 -34.3050 -34.3050 -34.3044
   -34.3044 -34.3018 -34.3017 -34.3017 -34.2936 -34.2844 -34.2697 -34.2697
   -34.2464 -34.2464 -34.2366 -34.2366 -34.2133 -34.2133 -34.2040 -34.1897
   -13.3389 -12.9135 -12.9135 -12.5417 -12.5417 -12.2300 -12.2300 -12.0763
   -11.9544 -11.9027 -11.9027 -11.7514 -11.7514 -11.7506 -11.7506 -11.6557
   -11.6557 -11.6279 -11.6278 -11.5416 -11.5076 -11.4791 -11.4791 -11.4255
   -11.4254 -11.4058 -11.4058 -11.3808 -11.3572 -11.3066 -11.3066 -11.2559
    -4.9839  -4.9722  -4.9722  -4.8455  -4.6015  -4.5444  -4.5444  -4.4970
    -4.4970  -4.4583  -4.4583  -4.4338  -4.4338  -4.4098  -4.4098  -4.3953
    -4.2812  -4.2812  -4.2168  -4.1792  -4.0231  -4.0231  -3.9815  -3.9815
    -3.6683  -3.3625  -3.3606  -3.3606  -3.3430  -3.3430  -3.2232  -3.2232
    -3.1655  -3.1655  -3.1427  -3.1427  -3.0856  -3.0856  -3.0753  -3.0326
    -2.8875  -2.8875  -2.8704  -2.8704  -2.7545  -2.6468  -2.5853  -2.5853
    -2.5175  -2.4792  -2.4792  -2.4676  -2.4676  -2.4114  -2.4114  -2.3414
    -2.1879  -2.1879  -2.1445  -2.1437  -2.1437  -2.1375  -2.1375  -1.8932
    -1.6840  -1.6736  -1.6736  -1.6114  -1.6114  -1.5160  -1.4691  -1.4691
    -1.3090  -1.2191  -1.2191  -1.1833  -1.1547  -1.1547  -1.1516  -1.1516
    -1.0034  -0.9073  -0.9073  -0.8691  -0.8691  -0.8358  -0.8335  -0.8335
    -0.6330  -0.5604  -0.5604  -0.5570  -0.4757  -0.4757  -0.4068  -0.4068
    -0.2559  -0.2559  -0.1042  -0.0734  -0.0734  -0.0024  -0.0024   0.0074
     0.0074   0.1856   0.2646   0.2646   0.2819   0.2819   0.4507   0.6323
     2.4879   2.6964   2.6964   2.7134   2.7134   2.7219   2.7922   2.7922
     2.8433   2.8433   2.8536   2.8536   2.8660   2.8660   2.8760   2.9957
     2.9957   3.0565   3.0565   3.1749   3.1749   3.1773   3.2135   3.2135
     3.2427   3.2427   3.2780   3.2961   3.2961   3.3704   3.3704   3.4220
     3.4322   3.5287   3.5538   3.5637   3.6558   3.6558   3.7630   3.8243
     3.8243   3.8439   3.8439   3.9005   3.9005   3.9435   4.1404   4.1404
     4.4373   4.4373   4.5735   4.5735

          k = 0.1583 0.2742 0.0000 (126365 PWs)   bands (ev):

   -60.2529 -60.2428 -60.2428 -60.2354 -60.2354 -60.2297 -60.2297 -60.2240
   -60.2208 -60.2208 -60.2195 -60.2195 -60.2179 -60.2166 -60.2166 -60.2151
   -34.5394 -34.5327 -34.5327 -34.4950 -34.4950 -34.4822 -34.4822 -34.4773
   -34.4542 -34.4340 -34.4339 -34.3816 -34.3783 -34.3736 -34.3736 -34.3579
   -34.3579 -34.3447 -34.3446 -34.3431 -34.3431 -34.3316 -34.3315 -34.3200
   -34.3136 -34.3136 -34.3110 -34.3110 -34.3077 -34.3063 -34.3063 -34.3052
   -34.3052 -34.3047 -34.3047 -34.3020 -34.2957 -34.2829 -34.2697 -34.2697
   -34.2453 -34.2453 -34.2358 -34.2358 -34.2139 -34.2139 -34.2023 -34.1893
   -13.3463 -12.9001 -12.9001 -12.5474 -12.5474 -12.2490 -12.2490 -12.0793
   -11.9345 -11.8973 -11.8973 -11.7538 -11.7538 -11.7436 -11.7435 -11.6480
   -11.6480 -11.6354 -11.6354 -11.5447 -11.4993 -11.4834 -11.4834 -11.4221
   -11.4221 -11.4031 -11.4031 -11.3881 -11.3591 -11.3081 -11.3081 -11.2594
    -4.9937  -4.9827  -4.9827  -4.8538  -4.5890  -4.5367  -4.5367  -4.4890
    -4.4890  -4.4466  -4.4466  -4.4246  -4.4246  -4.4052  -4.4052  -4.4018
    -4.2842  -4.2842  -4.2337  -4.1713  -4.0303  -4.0303  -3.9938  -3.9938
    -3.7005  -3.3657  -3.3480  -3.3479  -3.3381  -3.3381  -3.2236  -3.2236
    -3.1648  -3.1648  -3.1305  -3.1305  -3.0769  -3.0769  -3.0602  -3.0252
    -2.8878  -2.8878  -2.8874  -2.8874  -2.7371  -2.6466  -2.5874  -2.5874
    -2.5177  -2.4817  -2.4817  -2.4708  -2.4708  -2.4351  -2.4351  -2.3527
    -2.1704  -2.1704  -2.1557  -2.1557  -2.1285  -2.1200  -2.1200  -1.9008
    -1.7096  -1.7090  -1.7090  -1.6201  -1.6201  -1.4899  -1.4554  -1.4554
    -1.2939  -1.2137  -1.2137  -1.1840  -1.1567  -1.1567  -1.1469  -1.1469
    -0.9904  -0.9128  -0.9128  -0.8694  -0.8694  -0.8270  -0.8270  -0.7982
    -0.6482  -0.5732  -0.5421  -0.5421  -0.4876  -0.4876  -0.4180  -0.4180
    -0.2546  -0.2546  -0.0966  -0.0715  -0.0715   0.0009   0.0009   0.0119
     0.0119   0.1775   0.2503   0.2503   0.2750   0.2751   0.4351   0.6366
     2.5057   2.7050   2.7050   2.7163   2.7163   2.7347   2.7960   2.7960
     2.8445   2.8445   2.8541   2.8541   2.8597   2.8597   2.8766   2.9884
     2.9884   3.0529   3.0529   3.1663   3.1663   3.1813   3.2258   3.2259
     3.2492   3.2492   3.2871   3.3030   3.3030   3.3809   3.3809   3.4160
     3.4502   3.5153   3.5623   3.5760   3.6480   3.6480   3.7652   3.8148
     3.8148   3.8303   3.8303   3.8890   3.8890   3.9217   4.1527   4.1527
     4.4462   4.4462   4.5608   4.5609

          k = 0.1500 0.2598 0.0000 (126341 PWs)   bands (ev):

   -60.2531 -60.2425 -60.2425 -60.2356 -60.2355 -60.2301 -60.2301 -60.2237
   -60.2207 -60.2207 -60.2194 -60.2194 -60.2179 -60.2167 -60.2167 -60.2152
   -34.5401 -34.5341 -34.5341 -34.4938 -34.4938 -34.4818 -34.4818 -34.4781
   -34.4562 -34.4307 -34.4307 -34.3794 -34.3786 -34.3730 -34.3730 -34.3573
   -34.3573 -34.3450 -34.3450 -34.3433 -34.3433 -34.3323 -34.3323 -34.3193
   -34.3134 -34.3133 -34.3108 -34.3108 -34.3082 -34.3082 -34.3078 -34.3077
   -34.3077 -34.3053 -34.3053 -34.3023 -34.2978 -34.2816 -34.2696 -34.2696
   -34.2443 -34.2443 -34.2350 -34.2350 -34.2145 -34.2145 -34.2006 -34.1889
   -13.3532 -12.8864 -12.8864 -12.5529 -12.5529 -12.2680 -12.2680 -12.0821
   -11.9148 -11.8917 -11.8917 -11.7561 -11.7561 -11.7364 -11.7364 -11.6430
   -11.6430 -11.6407 -11.6407 -11.5476 -11.4910 -11.4880 -11.4880 -11.4186
   -11.4186 -11.4006 -11.4006 -11.3958 -11.3609 -11.3098 -11.3098 -11.2631
    -5.0030  -4.9928  -4.9928  -4.8617  -4.5760  -4.5290  -4.5290  -4.4815
    -4.4815  -4.4351  -4.4351  -4.4155  -4.4155  -4.4079  -4.4001  -4.4001
    -4.2873  -4.2873  -4.2501  -4.1638  -4.0371  -4.0371  -4.0064  -4.0064
    -3.7323  -3.3687  -3.3527  -3.3527  -3.3156  -3.3156  -3.2238  -3.2238
    -3.1641  -3.1641  -3.1180  -3.1180  -3.0682  -3.0682  -3.0464  -3.0181
    -2.9044  -2.9044  -2.8882  -2.8882  -2.7185  -2.6459  -2.5890  -2.5890
    -2.5178  -2.4842  -2.4842  -2.4742  -2.4742  -2.4591  -2.4591  -2.3642
    -2.1731  -2.1731  -2.1527  -2.1527  -2.1132  -2.0967  -2.0966  -1.9080
    -1.7442  -1.7442  -1.7356  -1.6290  -1.6289  -1.4638  -1.4414  -1.4414
    -1.2784  -1.2085  -1.2085  -1.1847  -1.1614  -1.1614  -1.1387  -1.1387
    -0.9781  -0.9194  -0.9194  -0.8702  -0.8702  -0.8202  -0.8202  -0.7614
    -0.6635  -0.5898  -0.5243  -0.5243  -0.4998  -0.4998  -0.4296  -0.4295
    -0.2521  -0.2521  -0.0887  -0.0696  -0.0696   0.0040   0.0040   0.0165
     0.0165   0.1692   0.2357   0.2357   0.2679   0.2679   0.4192   0.6405
     2.5236   2.7137   2.7137   2.7195   2.7195   2.7474   2.8001   2.8001
     2.8454   2.8454   2.8539   2.8539   2.8546   2.8546   2.8767   2.9813
     2.9813   3.0491   3.0491   3.1575   3.1575   3.1856   3.2388   3.2388
     3.2560   3.2560   3.2960   3.3098   3.3098   3.3916   3.3917   3.4105
     3.4678   3.5026   3.5704   3.5881   3.6397   3.6397   3.7672   3.8057
     3.8057   3.8165   3.8165   3.8778   3.8778   3.8992   4.1651   4.1651
     4.4542   4.4542   4.5483   4.5483

          k = 0.1417 0.2454 0.0000 (126345 PWs)   bands (ev):

   -60.2533 -60.2422 -60.2422 -60.2357 -60.2357 -60.2304 -60.2304 -60.2233
   -60.2206 -60.2206 -60.2193 -60.2193 -60.2180 -60.2168 -60.2167 -60.2153
   -34.5408 -34.5354 -34.5354 -34.4927 -34.4927 -34.4814 -34.4814 -34.4788
   -34.4582 -34.4274 -34.4274 -34.3789 -34.3771 -34.3725 -34.3725 -34.3567
   -34.3567 -34.3453 -34.3453 -34.3435 -34.3435 -34.3330 -34.3330 -34.3187
   -34.3131 -34.3131 -34.3108 -34.3108 -34.3106 -34.3106 -34.3101 -34.3101
   -34.3079 -34.3054 -34.3054 -34.3025 -34.2999 -34.2802 -34.2696 -34.2696
   -34.2432 -34.2432 -34.2343 -34.2342 -34.2151 -34.2151 -34.1989 -34.1885
   -13.3599 -12.8725 -12.8725 -12.5581 -12.5581 -12.2871 -12.2870 -12.0848
   -11.8953 -11.8861 -11.8861 -11.7583 -11.7583 -11.7291 -11.7291 -11.6506
   -11.6506 -11.6337 -11.6337 -11.5505 -11.4928 -11.4928 -11.4828 -11.4152
   -11.4152 -11.4039 -11.3981 -11.3981 -11.3627 -11.3116 -11.3116 -11.2669
    -5.0118  -5.0024  -5.0024  -4.8693  -4.5623  -4.5215  -4.5215  -4.4744
    -4.4744  -4.4240  -4.4240  -4.4137  -4.4066  -4.4066  -4.3946  -4.3946
    -4.2902  -4.2902  -4.2659  -4.1566  -4.0435  -4.0435  -4.0191  -4.0191
    -3.7639  -3.3715  -3.3572  -3.3572  -3.2930  -3.2930  -3.2238  -3.2238
    -3.1634  -3.1634  -3.1052  -3.1052  -3.0594  -3.0594  -3.0337  -3.0112
    -2.9213  -2.9213  -2.8888  -2.8888  -2.6985  -2.6447  -2.5903  -2.5903
    -2.5178  -2.4867  -2.4867  -2.4832  -2.4832  -2.4779  -2.4779  -2.3757
    -2.1898  -2.1898  -2.1348  -2.1348  -2.0986  -2.0736  -2.0736  -1.9149
    -1.7791  -1.7791  -1.7621  -1.6379  -1.6379  -1.4379  -1.4272  -1.4272
    -1.2626  -1.2035  -1.2035  -1.1856  -1.1657  -1.1657  -1.1302  -1.1302
    -0.9665  -0.9269  -0.9269  -0.8716  -0.8715  -0.8134  -0.8134  -0.7255
    -0.6791  -0.6067  -0.5122  -0.5122  -0.5071  -0.5071  -0.4415  -0.4415
    -0.2485  -0.2485  -0.0803  -0.0680  -0.0679   0.0069   0.0069   0.0211
     0.0211   0.1606   0.2208   0.2208   0.2605   0.2606   0.4030   0.6441
     2.5417   2.7225   2.7225   2.7230   2.7230   2.7600   2.8044   2.8044
     2.8460   2.8460   2.8485   2.8485   2.8550   2.8550   2.8766   2.9746
     2.9747   3.0453   3.0453   3.1486   3.1486   3.1903   3.2523   3.2523
     3.2631   3.2631   3.3047   3.3163   3.3163   3.4026   3.4026   3.4055
     3.4848   3.4906   3.5781   3.6000   3.6309   3.6309   3.7690   3.7972
     3.7972   3.8026   3.8026   3.8669   3.8669   3.8760   4.1775   4.1776
     4.4613   4.4613   4.5358   4.5358

          k = 0.1333 0.2309 0.0000 (126307 PWs)   bands (ev):

   -60.2534 -60.2419 -60.2419 -60.2358 -60.2358 -60.2308 -60.2308 -60.2230
   -60.2204 -60.2204 -60.2192 -60.2192 -60.2180 -60.2168 -60.2168 -60.2154
   -34.5414 -34.5366 -34.5366 -34.4916 -34.4916 -34.4811 -34.4811 -34.4795
   -34.4601 -34.4241 -34.4241 -34.3792 -34.3748 -34.3720 -34.3720 -34.3561
   -34.3561 -34.3455 -34.3455 -34.3437 -34.3437 -34.3337 -34.3337 -34.3180
   -34.3140 -34.3139 -34.3129 -34.3128 -34.3120 -34.3120 -34.3104 -34.3104
   -34.3080 -34.3056 -34.3056 -34.3028 -34.3021 -34.2790 -34.2695 -34.2695
   -34.2422 -34.2422 -34.2335 -34.2335 -34.2158 -34.2158 -34.1974 -34.1882
   -13.3661 -12.8583 -12.8583 -12.5630 -12.5630 -12.3061 -12.3061 -12.0874
   -11.8803 -11.8803 -11.8760 -11.7603 -11.7603 -11.7218 -11.7218 -11.6582
   -11.6582 -11.6271 -11.6271 -11.5531 -11.4978 -11.4978 -11.4746 -11.4124
   -11.4117 -11.4117 -11.3958 -11.3958 -11.3643 -11.3135 -11.3134 -11.2709
    -5.0201  -5.0116  -5.0116  -4.8764  -4.5480  -4.5142  -4.5141  -4.4678
    -4.4678  -4.4190  -4.4132  -4.4132  -4.3980  -4.3980  -4.3886  -4.3885
    -4.2931  -4.2931  -4.2810  -4.1498  -4.0495  -4.0495  -4.0319  -4.0319
    -3.7951  -3.3743  -3.3615  -3.3615  -3.2704  -3.2704  -3.2236  -3.2236
    -3.1627  -3.1627  -3.0922  -3.0922  -3.0505  -3.0505  -3.0221  -3.0046
    -2.9380  -2.9380  -2.8894  -2.8894  -2.6774  -2.6430  -2.5910  -2.5910
    -2.5177  -2.5074  -2.5074  -2.4892  -2.4892  -2.4817  -2.4817  -2.3873
    -2.2057  -2.2057  -2.1168  -2.1168  -2.0847  -2.0511  -2.0511  -1.9214
    -1.8137  -1.8137  -1.7888  -1.6471  -1.6471  -1.4127  -1.4127  -1.4121
    -1.2464  -1.1986  -1.1986  -1.1865  -1.1697  -1.1697  -1.1214  -1.1214
    -0.9556  -0.9355  -0.9355  -0.8734  -0.8734  -0.8063  -0.8063  -0.6949
    -0.6906  -0.6240  -0.5247  -0.5247  -0.4906  -0.4906  -0.4539  -0.4538
    -0.2438  -0.2438  -0.0714  -0.0664  -0.0664   0.0095   0.0095   0.0259
     0.0259   0.1517   0.2056   0.2056   0.2530   0.2530   0.3866   0.6475
     2.5599   2.7268   2.7268   2.7313   2.7313   2.7723   2.8089   2.8089
     2.8436   2.8436   2.8463   2.8463   2.8555   2.8555   2.8760   2.9684
     2.9684   3.0414   3.0414   3.1396   3.1396   3.1955   3.2663   3.2663
     3.2706   3.2706   3.3132   3.3225   3.3225   3.4010   3.4137   3.4137
     3.4791   3.5013   3.5854   3.6116   3.6216   3.6216   3.7706   3.7884
     3.7884   3.7893   3.7893   3.8522   3.8563   3.8563   4.1901   4.1901
     4.4676   4.4676   4.5235   4.5235

          k = 0.1250 0.2165 0.0000 (126321 PWs)   bands (ev):

   -60.2535 -60.2416 -60.2416 -60.2359 -60.2358 -60.2311 -60.2311 -60.2227
   -60.2203 -60.2203 -60.2191 -60.2191 -60.2181 -60.2169 -60.2169 -60.2156
   -34.5420 -34.5377 -34.5377 -34.4906 -34.4906 -34.4807 -34.4807 -34.4801
   -34.4619 -34.4208 -34.4208 -34.3795 -34.3725 -34.3716 -34.3715 -34.3554
   -34.3554 -34.3456 -34.3456 -34.3439 -34.3439 -34.3344 -34.3344 -34.3173
   -34.3171 -34.3171 -34.3139 -34.3139 -34.3126 -34.3126 -34.3102 -34.3102
   -34.3081 -34.3058 -34.3057 -34.3042 -34.3031 -34.2778 -34.2695 -34.2695
   -34.2412 -34.2412 -34.2328 -34.2328 -34.2164 -34.2164 -34.1960 -34.1878
   -13.3720 -12.8439 -12.8439 -12.5676 -12.5676 -12.3250 -12.3250 -12.0898
   -11.8745 -11.8745 -11.8569 -11.7623 -11.7623 -11.7144 -11.7144 -11.6658
   -11.6658 -11.6209 -11.6209 -11.5556 -11.5031 -11.5031 -11.4665 -11.4213
   -11.4082 -11.4082 -11.3936 -11.3936 -11.3659 -11.3154 -11.3154 -11.2750
    -5.0279  -5.0202  -5.0202  -4.8832  -4.5331  -4.5070  -4.5070  -4.4616
    -4.4616  -4.4239  -4.4028  -4.4028  -4.3896  -4.3896  -4.3821  -4.3821
    -4.2960  -4.2960  -4.2956  -4.1434  -4.0552  -4.0552  -4.0449  -4.0449
    -3.8259  -3.3768  -3.3656  -3.3655  -3.2477  -3.2477  -3.2231  -3.2231
    -3.1621  -3.1620  -3.0790  -3.0790  -3.0416  -3.0416  -3.0117  -2.9983
    -2.9546  -2.9546  -2.8901  -2.8901  -2.6551  -2.6408  -2.5914  -2.5914
    -2.5317  -2.5317  -2.5174  -2.4916  -2.4916  -2.4858  -2.4858  -2.3988
    -2.2206  -2.2206  -2.0987  -2.0987  -2.0715  -2.0291  -2.0291  -1.9275
    -1.8478  -1.8478  -1.8159  -1.6565  -1.6565  -1.3979  -1.3979  -1.3864
    -1.2301  -1.1939  -1.1939  -1.1875  -1.1734  -1.1734  -1.1124  -1.1124
    -0.9453  -0.9449  -0.9449  -0.8759  -0.8758  -0.7991  -0.7991  -0.7109
    -0.6566  -0.6416  -0.5373  -0.5373  -0.4748  -0.4748  -0.4665  -0.4665
    -0.2380  -0.2380  -0.0649  -0.0649  -0.0622   0.0119   0.0119   0.0308
     0.0308   0.1426   0.1902   0.1902   0.2452   0.2452   0.3700   0.6506
     2.5781   2.7309   2.7309   2.7400   2.7400   2.7840   2.8134   2.8134
     2.8392   2.8392   2.8462   2.8462   2.8559   2.8559   2.8753   2.9626
     2.9626   3.0375   3.0375   3.1305   3.1305   3.2015   3.2785   3.2785
     3.2808   3.2808   3.3215   3.3285   3.3285   3.3970   3.4249   3.4249
     3.4683   3.5171   3.5923   3.6118   3.6118   3.6229   3.7720   3.7739
     3.7739   3.7819   3.7819   3.8278   3.8461   3.8461   4.2027   4.2027
     4.4732   4.4732   4.5115   4.5115

          k = 0.1167 0.2021 0.0000 (126279 PWs)   bands (ev):

   -60.2537 -60.2413 -60.2413 -60.2359 -60.2359 -60.2315 -60.2315 -60.2223
   -60.2202 -60.2202 -60.2190 -60.2190 -60.2181 -60.2170 -60.2170 -60.2157
   -34.5426 -34.5388 -34.5388 -34.4895 -34.4895 -34.4806 -34.4804 -34.4804
   -34.4637 -34.4174 -34.4174 -34.3798 -34.3711 -34.3711 -34.3702 -34.3548
   -34.3548 -34.3457 -34.3457 -34.3441 -34.3441 -34.3351 -34.3351 -34.3204
   -34.3204 -34.3167 -34.3158 -34.3158 -34.3124 -34.3123 -34.3100 -34.3100
   -34.3082 -34.3064 -34.3059 -34.3059 -34.3034 -34.2767 -34.2694 -34.2694
   -34.2402 -34.2402 -34.2321 -34.2321 -34.2171 -34.2171 -34.1946 -34.1875
   -13.3775 -12.8292 -12.8292 -12.5719 -12.5719 -12.3440 -12.3440 -12.0920
   -11.8685 -11.8685 -11.8380 -11.7641 -11.7641 -11.7070 -11.7070 -11.6734
   -11.6734 -11.6150 -11.6150 -11.5580 -11.5085 -11.5085 -11.4585 -11.4306
   -11.4047 -11.4047 -11.3916 -11.3916 -11.3674 -11.3176 -11.3175 -11.2794
    -5.0352  -5.0284  -5.0284  -4.8895  -4.5175  -4.4999  -4.4999  -4.4560
    -4.4560  -4.4284  -4.3928  -4.3928  -4.3815  -4.3815  -4.3752  -4.3751
    -4.3095  -4.2987  -4.2987  -4.1373  -4.0605  -4.0605  -4.0579  -4.0579
    -3.8564  -3.3793  -3.3694  -3.3694  -3.2249  -3.2249  -3.2222  -3.2222
    -3.1614  -3.1614  -3.0658  -3.0658  -3.0328  -3.0328  -3.0023  -2.9923
    -2.9709  -2.9709  -2.8908  -2.8908  -2.6381  -2.6318  -2.5913  -2.5913
    -2.5562  -2.5562  -2.5171  -2.4940  -2.4940  -2.4900  -2.4900  -2.4103
    -2.2344  -2.2344  -2.0805  -2.0805  -2.0591  -2.0077  -2.0077  -1.9333
    -1.8815  -1.8814  -1.8434  -1.6662  -1.6662  -1.3830  -1.3830  -1.3609
    -1.2135  -1.1895  -1.1895  -1.1884  -1.1768  -1.1768  -1.1032  -1.1031
    -0.9552  -0.9552  -0.9358  -0.8788  -0.8788  -0.7917  -0.7917  -0.7271
    -0.6595  -0.6238  -0.5498  -0.5498  -0.4793  -0.4793  -0.4597  -0.4597
    -0.2311  -0.2311  -0.0636  -0.0636  -0.0525   0.0140   0.0140   0.0358
     0.0358   0.1332   0.1745   0.1745   0.2372   0.2372   0.3533   0.6535
     2.5962   2.7352   2.7352   2.7487   2.7487   2.7951   2.8178   2.8178
     2.8352   2.8352   2.8459   2.8459   2.8563   2.8563   2.8742   2.9573
     2.9574   3.0334   3.0335   3.1213   3.1213   3.2083   3.2868   3.2868
     3.2957   3.2957   3.3294   3.3341   3.3341   3.3934   3.4359   3.4359
     3.4582   3.5322   3.5987   3.6017   3.6017   3.6340   3.7593   3.7593
     3.7730   3.7752   3.7752   3.8028   3.8362   3.8362   4.2153   4.2153
     4.4780   4.4780   4.4997   4.4997

          k = 0.1083 0.1876 0.0000 (126277 PWs)   bands (ev):

   -60.2538 -60.2410 -60.2409 -60.2360 -60.2360 -60.2319 -60.2319 -60.2220
   -60.2201 -60.2200 -60.2190 -60.2189 -60.2182 -60.2171 -60.2171 -60.2159
   -34.5431 -34.5398 -34.5398 -34.4885 -34.4885 -34.4811 -34.4802 -34.4801
   -34.4654 -34.4140 -34.4140 -34.3800 -34.3707 -34.3707 -34.3679 -34.3542
   -34.3542 -34.3457 -34.3457 -34.3442 -34.3442 -34.3359 -34.3359 -34.3236
   -34.3236 -34.3176 -34.3176 -34.3161 -34.3121 -34.3121 -34.3098 -34.3098
   -34.3085 -34.3083 -34.3061 -34.3061 -34.3037 -34.2756 -34.2694 -34.2694
   -34.2392 -34.2392 -34.2315 -34.2315 -34.2177 -34.2177 -34.1934 -34.1872
   -13.3827 -12.8143 -12.8143 -12.5759 -12.5759 -12.3629 -12.3629 -12.0941
   -11.8625 -11.8625 -11.8193 -11.7658 -11.7658 -11.6995 -11.6995 -11.6810
   -11.6810 -11.6095 -11.6095 -11.5602 -11.5142 -11.5142 -11.4506 -11.4403
   -11.4012 -11.4012 -11.3896 -11.3896 -11.3687 -11.3198 -11.3198 -11.2839
    -5.0420  -5.0360  -5.0360  -4.8954  -4.5014  -4.4932  -4.4931  -4.4509
    -4.4509  -4.4324  -4.3833  -4.3833  -4.3737  -4.3737  -4.3678  -4.3678
    -4.3228  -4.3013  -4.3013  -4.1317  -4.0711  -4.0711  -4.0654  -4.0654
    -3.8866  -3.3816  -3.3730  -3.3730  -3.2210  -3.2210  -3.2021  -3.2021
    -3.1607  -3.1607  -3.0527  -3.0527  -3.0240  -3.0240  -2.9940  -2.9870
    -2.9870  -2.9867  -2.8916  -2.8916  -2.6350  -2.6075  -2.5908  -2.5908
    -2.5806  -2.5806  -2.5167  -2.4963  -2.4963  -2.4944  -2.4944  -2.4218
    -2.2470  -2.2470  -2.0623  -2.0623  -2.0474  -1.9872  -1.9872  -1.9386
    -1.9145  -1.9145  -1.8711  -1.6761  -1.6761  -1.3677  -1.3677  -1.3357
    -1.1967  -1.1894  -1.1853  -1.1853  -1.1798  -1.1798  -1.0937  -1.0937
    -0.9663  -0.9663  -0.9269  -0.8823  -0.8823  -0.7841  -0.7840  -0.7434
    -0.6776  -0.5921  -0.5622  -0.5622  -0.4924  -0.4924  -0.4454  -0.4454
    -0.2232  -0.2232  -0.0624  -0.0624  -0.0424   0.0159   0.0159   0.0409
     0.0409   0.1236   0.1585   0.1586   0.2292   0.2292   0.3364   0.6561
     2.6143   2.7397   2.7397   2.7573   2.7573   2.8053   2.8221   2.8221
     2.8318   2.8318   2.8452   2.8452   2.8567   2.8567   2.8731   2.9528
     2.9529   3.0294   3.0294   3.1120   3.1121   3.2160   3.2955   3.2955
     3.3111   3.3111   3.3369   3.3395   3.3395   3.3903   3.4468   3.4468
     3.4487   3.5465   3.5912   3.5912   3.6048   3.6447   3.7444   3.7444
     3.7691   3.7691   3.7738   3.7774   3.8268   3.8268   4.2281   4.2281
     4.4822   4.4822   4.4883   4.4883

          k = 0.1000 0.1732 0.0000 (126309 PWs)   bands (ev):

   -60.2539 -60.2406 -60.2406 -60.2361 -60.2361 -60.2322 -60.2322 -60.2217
   -60.2199 -60.2199 -60.2189 -60.2189 -60.2182 -60.2172 -60.2172 -60.2160
   -34.5435 -34.5408 -34.5408 -34.4876 -34.4876 -34.4814 -34.4799 -34.4799
   -34.4670 -34.4106 -34.4106 -34.3802 -34.3704 -34.3704 -34.3656 -34.3535
   -34.3535 -34.3456 -34.3456 -34.3444 -34.3444 -34.3366 -34.3366 -34.3269
   -34.3269 -34.3194 -34.3194 -34.3154 -34.3118 -34.3118 -34.3107 -34.3097
   -34.3097 -34.3083 -34.3063 -34.3063 -34.3040 -34.2747 -34.2693 -34.2693
   -34.2382 -34.2382 -34.2309 -34.2309 -34.2184 -34.2184 -34.1922 -34.1869
   -13.3875 -12.7992 -12.7992 -12.5797 -12.5797 -12.3818 -12.3818 -12.0961
   -11.8564 -11.8564 -11.8009 -11.7674 -11.7674 -11.6920 -11.6920 -11.6885
   -11.6885 -11.6043 -11.6043 -11.5623 -11.5200 -11.5200 -11.4503 -11.4427
   -11.3977 -11.3976 -11.3879 -11.3879 -11.3700 -11.3221 -11.3221 -11.2885
    -5.0484  -5.0432  -5.0432  -4.9009  -4.4866  -4.4866  -4.4847  -4.4463
    -4.4463  -4.4359  -4.3744  -4.3744  -4.3663  -4.3663  -4.3600  -4.3600
    -4.3354  -4.3038  -4.3038  -4.1265  -4.0843  -4.0842  -4.0700  -4.0700
    -3.9163  -3.3837  -3.3764  -3.3764  -3.2194  -3.2194  -3.1792  -3.1792
    -3.1601  -3.1601  -3.0397  -3.0397  -3.0154  -3.0154  -3.0028  -3.0028
    -2.9865  -2.9814  -2.8923  -2.8923  -2.6314  -2.6052  -2.6052  -2.5900
    -2.5900  -2.5824  -2.5163  -2.4989  -2.4989  -2.4985  -2.4985  -2.4332
    -2.2584  -2.2584  -2.0441  -2.0441  -2.0366  -1.9675  -1.9675  -1.9470
    -1.9470  -1.9436  -1.8990  -1.6864  -1.6863  -1.3523  -1.3523  -1.3108
    -1.1904  -1.1826  -1.1826  -1.1813  -1.1813  -1.1797  -1.0841  -1.0841
    -0.9782  -0.9781  -0.9187  -0.8862  -0.8862  -0.7762  -0.7762  -0.7599
    -0.6960  -0.5744  -0.5744  -0.5616  -0.5056  -0.5056  -0.4319  -0.4319
    -0.2144  -0.2144  -0.0613  -0.0613  -0.0320   0.0176   0.0176   0.0462
     0.0462   0.1139   0.1424   0.1424   0.2210   0.2210   0.3195   0.6585
     2.6321   2.7445   2.7445   2.7657   2.7657   2.8144   2.8261   2.8261
     2.8288   2.8288   2.8441   2.8441   2.8571   2.8571   2.8717   2.9492
     2.9492   3.0253   3.0253   3.1027   3.1027   3.2249   3.3045   3.3045
     3.3268   3.3268   3.3441   3.3445   3.3445   3.3875   3.4399   3.4575
     3.4575   3.5601   3.5804   3.5804   3.6104   3.6551   3.7292   3.7292
     3.7516   3.7636   3.7636   3.7742   3.8177   3.8177   4.2409   4.2409
     4.4773   4.4773   4.4858   4.4858

          k = 0.0917 0.1588 0.0000 (126319 PWs)   bands (ev):

   -60.2540 -60.2403 -60.2403 -60.2362 -60.2362 -60.2326 -60.2326 -60.2214
   -60.2198 -60.2198 -60.2188 -60.2188 -60.2182 -60.2173 -60.2172 -60.2162
   -34.5440 -34.5417 -34.5417 -34.4867 -34.4867 -34.4817 -34.4797 -34.4797
   -34.4685 -34.4071 -34.4071 -34.3804 -34.3701 -34.3701 -34.3632 -34.3529
   -34.3529 -34.3454 -34.3454 -34.3445 -34.3445 -34.3373 -34.3373 -34.3303
   -34.3303 -34.3212 -34.3212 -34.3148 -34.3129 -34.3116 -34.3116 -34.3095
   -34.3095 -34.3084 -34.3065 -34.3064 -34.3043 -34.2738 -34.2693 -34.2693
   -34.2372 -34.2372 -34.2304 -34.2304 -34.2191 -34.2191 -34.1911 -34.1867
   -13.3918 -12.7838 -12.7838 -12.5831 -12.5831 -12.4006 -12.4006 -12.0979
   -11.8502 -11.8501 -11.7827 -11.7688 -11.7688 -11.6960 -11.6960 -11.6844
   -11.6844 -11.5996 -11.5996 -11.5642 -11.5260 -11.5260 -11.4608 -11.4350
   -11.3941 -11.3941 -11.3862 -11.3862 -11.3712 -11.3245 -11.3245 -11.2933
    -5.0542  -5.0498  -5.0498  -4.9060  -4.4803  -4.4803  -4.4673  -4.4422
    -4.4422  -4.4389  -4.3660  -4.3660  -4.3593  -4.3593  -4.3518  -4.3518
    -4.3474  -4.3061  -4.3061  -4.1216  -4.0975  -4.0975  -4.0742  -4.0742
    -3.9456  -3.3857  -3.3795  -3.3795  -3.2173  -3.2173  -3.1595  -3.1595
    -3.1562  -3.1562  -3.0271  -3.0271  -3.0182  -3.0182  -3.0069  -3.0069
    -2.9799  -2.9765  -2.8931  -2.8931  -2.6297  -2.6297  -2.6273  -2.5887
    -2.5887  -2.5566  -2.5158  -2.5035  -2.5035  -2.5005  -2.5005  -2.4444
    -2.2683  -2.2683  -2.0265  -2.0260  -2.0260  -1.9787  -1.9787  -1.9488
    -1.9488  -1.9482  -1.9272  -1.6969  -1.6969  -1.3367  -1.3367  -1.2862
    -1.1914  -1.1852  -1.1852  -1.1776  -1.1776  -1.1625  -1.0743  -1.0743
    -0.9907  -0.9907  -0.9111  -0.8907  -0.8907  -0.7766  -0.7681  -0.7681
    -0.7145  -0.5861  -0.5861  -0.5324  -0.5188  -0.5188  -0.4193  -0.4193
    -0.2047  -0.2047  -0.0603  -0.0603  -0.0211   0.0190   0.0190   0.0517
     0.0517   0.1039   0.1261   0.1261   0.2127   0.2127   0.3026   0.6607
     2.6497   2.7494   2.7494   2.7738   2.7738   2.8223   2.8263   2.8263
     2.8296   2.8296   2.8426   2.8426   2.8574   2.8574   2.8703   2.9465
     2.9466   3.0213   3.0213   3.0933   3.0933   3.2350   3.3139   3.3139
     3.3429   3.3429   3.3491   3.3491   3.3508   3.3850   3.4318   3.4678
     3.4678   3.5692   3.5692   3.5727   3.6156   3.6651   3.7139   3.7139
     3.7254   3.7587   3.7587   3.7743   3.8091   3.8091   4.2539   4.2539
     4.4667   4.4667   4.4888   4.4888

          k = 0.0833 0.1443 0.0000 (126309 PWs)   bands (ev):

   -60.2541 -60.2400 -60.2400 -60.2362 -60.2362 -60.2329 -60.2329 -60.2211
   -60.2197 -60.2197 -60.2187 -60.2187 -60.2183 -60.2174 -60.2173 -60.2164
   -34.5444 -34.5425 -34.5425 -34.4858 -34.4858 -34.4820 -34.4795 -34.4795
   -34.4699 -34.4037 -34.4037 -34.3806 -34.3698 -34.3698 -34.3609 -34.3522
   -34.3522 -34.3451 -34.3451 -34.3447 -34.3447 -34.3380 -34.3380 -34.3336
   -34.3336 -34.3230 -34.3230 -34.3151 -34.3142 -34.3113 -34.3113 -34.3094
   -34.3094 -34.3085 -34.3066 -34.3066 -34.3047 -34.2730 -34.2692 -34.2692
   -34.2363 -34.2363 -34.2299 -34.2299 -34.2198 -34.2198 -34.1901 -34.1865
   -13.3959 -12.7682 -12.7682 -12.5863 -12.5863 -12.4193 -12.4193 -12.0995
   -11.8438 -11.8438 -11.7702 -11.7702 -11.7647 -11.7035 -11.7035 -11.6768
   -11.6768 -11.5953 -11.5953 -11.5659 -11.5322 -11.5322 -11.4717 -11.4273
   -11.3906 -11.3906 -11.3847 -11.3847 -11.3723 -11.3270 -11.3270 -11.2983
    -5.0596  -5.0558  -5.0558  -4.9106  -4.4742  -4.4742  -4.4494  -4.4413
    -4.4387  -4.4387  -4.3586  -4.3582  -4.3582  -4.3528  -4.3528  -4.3432
    -4.3432  -4.3083  -4.3083  -4.1172  -4.1107  -4.1107  -4.0780  -4.0780
    -3.9745  -3.3875  -3.3824  -3.3823  -3.2148  -3.2148  -3.1589  -3.1589
    -3.1331  -3.1331  -3.0333  -3.0333  -3.0149  -3.0149  -2.9987  -2.9987
    -2.9740  -2.9719  -2.8938  -2.8938  -2.6543  -2.6543  -2.6227  -2.5871
    -2.5871  -2.5302  -2.5154  -2.5082  -2.5082  -2.5025  -2.5025  -2.4556
    -2.2767  -2.2767  -2.0172  -2.0096  -2.0095  -2.0079  -2.0079  -1.9556
    -1.9524  -1.9312  -1.9312  -1.7078  -1.7078  -1.3209  -1.3209  -1.2620
    -1.1924  -1.1874  -1.1874  -1.1742  -1.1742  -1.1452  -1.0645  -1.0645
    -1.0039  -1.0039  -0.9043  -0.8957  -0.8957  -0.7935  -0.7597  -0.7597
    -0.7331  -0.5974  -0.5974  -0.5322  -0.5322  -0.5047  -0.4076  -0.4076
    -0.1942  -0.1942  -0.0594  -0.0594  -0.0098   0.0203   0.0203   0.0573
     0.0573   0.0940   0.1097   0.1097   0.2044   0.2044   0.2856   0.6626
     2.6669   2.7544   2.7544   2.7817   2.7817   2.8243   2.8243   2.8287
     2.8324   2.8324   2.8409   2.8409   2.8578   2.8578   2.8689   2.9450
     2.9450   3.0173   3.0173   3.0839   3.0839   3.2465   3.3237   3.3237
     3.3534   3.3534   3.3571   3.3593   3.3593   3.3829   3.4243   3.4777
     3.4777   3.5578   3.5578   3.5845   3.6204   3.6748   3.6983   3.6983
     3.6989   3.7545   3.7545   3.7740   3.8009   3.8009   4.2669   4.2669
     4.4568   4.4568   4.4914   4.4914

          k = 0.0750 0.1299 0.0000 (126341 PWs)   bands (ev):

   -60.2542 -60.2397 -60.2396 -60.2363 -60.2363 -60.2333 -60.2333 -60.2208
   -60.2196 -60.2195 -60.2187 -60.2187 -60.2183 -60.2175 -60.2174 -60.2166
   -34.5447 -34.5432 -34.5432 -34.4850 -34.4850 -34.4821 -34.4794 -34.4793
   -34.4713 -34.4002 -34.4002 -34.3808 -34.3695 -34.3695 -34.3586 -34.3516
   -34.3515 -34.3448 -34.3448 -34.3448 -34.3448 -34.3388 -34.3388 -34.3370
   -34.3370 -34.3247 -34.3247 -34.3173 -34.3136 -34.3111 -34.3111 -34.3093
   -34.3093 -34.3085 -34.3068 -34.3068 -34.3050 -34.2722 -34.2692 -34.2692
   -34.2353 -34.2353 -34.2294 -34.2294 -34.2205 -34.2205 -34.1892 -34.1863
   -13.3995 -12.7524 -12.7524 -12.5891 -12.5891 -12.4380 -12.4380 -12.1010
   -11.8375 -11.8374 -11.7714 -11.7714 -11.7471 -11.7110 -11.7110 -11.6692
   -11.6692 -11.5913 -11.5913 -11.5675 -11.5386 -11.5385 -11.4830 -11.4197
   -11.3871 -11.3871 -11.3833 -11.3833 -11.3732 -11.3296 -11.3296 -11.3035
    -5.0644  -5.0613  -5.0613  -4.9148  -4.4685  -4.4685  -4.4433  -4.4357
    -4.4357  -4.4308  -4.3692  -4.3510  -4.3510  -4.3467  -4.3467  -4.3342
    -4.3342  -4.3103  -4.3103  -4.1239  -4.1239  -4.1132  -4.0814  -4.0814
    -4.0030  -3.3891  -3.3850  -3.3850  -3.2117  -3.2117  -3.1584  -3.1584
    -3.1100  -3.1100  -3.0480  -3.0480  -3.0034  -3.0034  -2.9908  -2.9908
    -2.9689  -2.9677  -2.8944  -2.8944  -2.6788  -2.6788  -2.6178  -2.5852
    -2.5852  -2.5149  -2.5130  -2.5130  -2.5043  -2.5043  -2.5032  -2.4665
    -2.2834  -2.2834  -2.0395  -2.0395  -2.0088  -1.9900  -1.9900  -1.9842
    -1.9562  -1.9148  -1.9148  -1.7191  -1.7191  -1.3050  -1.3050  -1.2384
    -1.1933  -1.1894  -1.1894  -1.1711  -1.1711  -1.1278  -1.0546  -1.0546
    -1.0176  -1.0176  -0.9011  -0.9011  -0.8981  -0.8105  -0.7517  -0.7510
    -0.7510  -0.6081  -0.6081  -0.5455  -0.5455  -0.4786  -0.3968  -0.3968
    -0.1829  -0.1828  -0.0586  -0.0586   0.0019   0.0213   0.0213   0.0631
     0.0631   0.0840   0.0932   0.0932   0.1961   0.1961   0.2688   0.6644
     2.6838   2.7595   2.7595   2.7892   2.7892   2.8228   2.8228   2.8336
     2.8346   2.8346   2.8387   2.8387   2.8581   2.8581   2.8674   2.9448
     2.9448   3.0134   3.0134   3.0744   3.0744   3.2594   3.3338   3.3338
     3.3573   3.3573   3.3628   3.3759   3.3759   3.3811   3.4176   3.4870
     3.4870   3.5462   3.5462   3.5953   3.6247   3.6723   3.6824   3.6824
     3.6840   3.7509   3.7509   3.7733   3.7932   3.7932   4.2800   4.2800
     4.4474   4.4474   4.4936   4.4936

          k = 0.0667 0.1155 0.0000 (126349 PWs)   bands (ev):

   -60.2543 -60.2393 -60.2393 -60.2363 -60.2363 -60.2337 -60.2337 -60.2205
   -60.2194 -60.2194 -60.2186 -60.2186 -60.2183 -60.2176 -60.2175 -60.2167
   -34.5451 -34.5438 -34.5438 -34.4842 -34.4842 -34.4822 -34.4792 -34.4792
   -34.4726 -34.3967 -34.3967 -34.3810 -34.3693 -34.3693 -34.3563 -34.3509
   -34.3509 -34.3449 -34.3449 -34.3443 -34.3443 -34.3404 -34.3404 -34.3395
   -34.3395 -34.3264 -34.3264 -34.3196 -34.3130 -34.3108 -34.3108 -34.3092
   -34.3092 -34.3086 -34.3070 -34.3070 -34.3054 -34.2716 -34.2692 -34.2692
   -34.2344 -34.2344 -34.2290 -34.2290 -34.2212 -34.2212 -34.1884 -34.1861
   -13.4028 -12.7364 -12.7364 -12.5917 -12.5917 -12.4566 -12.4566 -12.1023
   -11.8310 -11.8310 -11.7725 -11.7725 -11.7296 -11.7185 -11.7185 -11.6616
   -11.6616 -11.5878 -11.5878 -11.5689 -11.5450 -11.5450 -11.4946 -11.4122
   -11.3836 -11.3836 -11.3821 -11.3821 -11.3741 -11.3323 -11.3323 -11.3087
    -5.0687  -5.0663  -5.0663  -4.9186  -4.4631  -4.4631  -4.4446  -4.4333
    -4.4333  -4.4117  -4.3791  -4.3445  -4.3445  -4.3412  -4.3412  -4.3249
    -4.3249  -4.3121  -4.3121  -4.1371  -4.1371  -4.1096  -4.0845  -4.0845
    -4.0311  -3.3906  -3.3873  -3.3873  -3.2081  -3.2081  -3.1579  -3.1579
    -3.0867  -3.0867  -3.0622  -3.0622  -2.9926  -2.9926  -2.9833  -2.9833
    -2.9645  -2.9640  -2.8951  -2.8951  -2.7033  -2.7033  -2.6124  -2.5829
    -2.5829  -2.5178  -2.5178  -2.5144  -2.5059  -2.5059  -2.4773  -2.4758
    -2.2881  -2.2881  -2.0684  -2.0684  -2.0130  -2.0013  -1.9722  -1.9722
    -1.9596  -1.8998  -1.8998  -1.7308  -1.7308  -1.2889  -1.2889  -1.2154
    -1.1941  -1.1912  -1.1912  -1.1682  -1.1682  -1.1102  -1.0447  -1.0447
    -1.0318  -1.0318  -0.9070  -0.9070  -0.8925  -0.8276  -0.7702  -0.7421
    -0.7421  -0.6180  -0.6180  -0.5588  -0.5588  -0.4542  -0.3870  -0.3870
    -0.1708  -0.1708  -0.0580  -0.0580   0.0140   0.0222   0.0222   0.0691
     0.0691   0.0741   0.0765   0.0765   0.1878   0.1878   0.2520   0.6659
     2.7001   2.7648   2.7648   2.7962   2.7962   2.8217   2.8217   2.8359
     2.8359   2.8362   2.8362   2.8369   2.8584   2.8584   2.8660   2.9458
     2.9458   3.0096   3.0096   3.0650   3.0650   3.2738   3.3442   3.3442
     3.3608   3.3608   3.3681   3.3795   3.3928   3.3928   3.4115   3.4957
     3.4957   3.5344   3.5344   3.6051   3.6285   3.6455   3.6664   3.6664
     3.6929   3.7480   3.7480   3.7723   3.7860   3.7860   4.2933   4.2933
     4.4388   4.4388   4.4954   4.4954

          k = 0.0583 0.1010 0.0000 (126319 PWs)   bands (ev):

   -60.2543 -60.2390 -60.2390 -60.2364 -60.2364 -60.2340 -60.2340 -60.2202
   -60.2193 -60.2193 -60.2186 -60.2186 -60.2184 -60.2177 -60.2176 -60.2169
   -34.5454 -34.5444 -34.5444 -34.4835 -34.4835 -34.4822 -34.4792 -34.4792
   -34.4738 -34.3932 -34.3932 -34.3811 -34.3691 -34.3691 -34.3539 -34.3502
   -34.3502 -34.3450 -34.3450 -34.3439 -34.3439 -34.3438 -34.3438 -34.3402
   -34.3402 -34.3280 -34.3280 -34.3218 -34.3125 -34.3106 -34.3106 -34.3091
   -34.3091 -34.3086 -34.3073 -34.3072 -34.3058 -34.2710 -34.2692 -34.2692
   -34.2335 -34.2335 -34.2286 -34.2286 -34.2220 -34.2220 -34.1877 -34.1859
   -13.4056 -12.7201 -12.7201 -12.5939 -12.5939 -12.4751 -12.4751 -12.1035
   -11.8244 -11.8244 -11.7734 -11.7734 -11.7259 -11.7259 -11.7125 -11.6540
   -11.6540 -11.5846 -11.5846 -11.5702 -11.5517 -11.5517 -11.5066 -11.4049
   -11.3810 -11.3810 -11.3801 -11.3801 -11.3749 -11.3350 -11.3350 -11.3142
    -5.0725  -5.0706  -5.0706  -4.9220  -4.4580  -4.4580  -4.4453  -4.4315
    -4.4315  -4.3920  -4.3883  -4.3388  -4.3387  -4.3362  -4.3361  -4.3152
    -4.3152  -4.3138  -4.3138  -4.1502  -4.1502  -4.1064  -4.0872  -4.0872
    -4.0587  -3.3919  -3.3894  -3.3894  -3.2038  -3.2038  -3.1575  -3.1575
    -3.0760  -3.0759  -3.0634  -3.0634  -2.9828  -2.9828  -2.9762  -2.9762
    -2.9607  -2.9606  -2.8956  -2.8956  -2.7278  -2.7278  -2.6066  -2.5803
    -2.5803  -2.5226  -2.5226  -2.5140  -2.5074  -2.5074  -2.4879  -2.4479
    -2.2909  -2.2909  -2.0961  -2.0961  -2.0419  -1.9946  -1.9626  -1.9546
    -1.9546  -1.8862  -1.8862  -1.7429  -1.7429  -1.2726  -1.2726  -1.1949
    -1.1932  -1.1927  -1.1927  -1.1657  -1.1657  -1.0926  -1.0465  -1.0465
    -1.0347  -1.0347  -0.9133  -0.9133  -0.8877  -0.8448  -0.7883  -0.7328
    -0.7328  -0.6271  -0.6271  -0.5720  -0.5720  -0.4316  -0.3783  -0.3783
    -0.1581  -0.1581  -0.0574  -0.0574   0.0229   0.0229   0.0264   0.0598
     0.0598   0.0646   0.0753   0.0753   0.1795   0.1795   0.2353   0.6673
     2.7160   2.7700   2.7700   2.8028   2.8028   2.8211   2.8211   2.8334
     2.8334   2.8364   2.8364   2.8385   2.8587   2.8587   2.8647   2.9482
     2.9482   3.0060   3.0060   3.0555   3.0555   3.2897   3.3549   3.3549
     3.3639   3.3639   3.3728   3.3782   3.4061   3.4098   3.4098   3.5036
     3.5036   3.5224   3.5224   3.6139   3.6187   3.6320   3.6501   3.6501
     3.7013   3.7457   3.7457   3.7708   3.7793   3.7793   4.3067   4.3067
     4.4309   4.4310   4.4968   4.4968

          k = 0.0500 0.0866 0.0000 (126293 PWs)   bands (ev):

   -60.2544 -60.2386 -60.2386 -60.2364 -60.2364 -60.2344 -60.2344 -60.2200
   -60.2192 -60.2192 -60.2185 -60.2185 -60.2184 -60.2178 -60.2177 -60.2171
   -34.5456 -34.5449 -34.5449 -34.4828 -34.4828 -34.4821 -34.4791 -34.4791
   -34.4749 -34.3897 -34.3897 -34.3812 -34.3689 -34.3689 -34.3516 -34.3495
   -34.3495 -34.3473 -34.3473 -34.3451 -34.3451 -34.3432 -34.3432 -34.3410
   -34.3409 -34.3296 -34.3296 -34.3241 -34.3119 -34.3103 -34.3103 -34.3090
   -34.3090 -34.3087 -34.3075 -34.3075 -34.3062 -34.2705 -34.2691 -34.2691
   -34.2326 -34.2326 -34.2283 -34.2283 -34.2227 -34.2227 -34.1871 -34.1858
   -13.4081 -12.7037 -12.7037 -12.5959 -12.5959 -12.4935 -12.4935 -12.1045
   -11.8178 -11.8178 -11.7743 -11.7743 -11.7333 -11.7332 -11.6957 -11.6464
   -11.6463 -11.5819 -11.5819 -11.5713 -11.5584 -11.5584 -11.5190 -11.3976
   -11.3801 -11.3801 -11.3766 -11.3766 -11.3756 -11.3379 -11.3379 -11.3198
    -5.0759  -5.0744  -5.0744  -4.9248  -4.4532  -4.4532  -4.4455  -4.4301
    -4.4301  -4.3968  -4.3717  -4.3337  -4.3337  -4.3317  -4.3317  -4.3152
    -4.3152  -4.3051  -4.3051  -4.1632  -4.1632  -4.1037  -4.0895  -4.0895
    -4.0858  -3.3930  -3.3912  -3.3912  -3.1990  -3.1990  -3.1571  -3.1571
    -3.0892  -3.0892  -3.0400  -3.0400  -2.9740  -2.9740  -2.9698  -2.9698
    -2.9577  -2.9574  -2.8962  -2.8962  -2.7523  -2.7523  -2.6003  -2.5774
    -2.5774  -2.5274  -2.5274  -2.5136  -2.5087  -2.5087  -2.4983  -2.4197
    -2.2916  -2.2916  -2.1226  -2.1226  -2.0709  -1.9887  -1.9652  -1.9372
    -1.9372  -1.8741  -1.8741  -1.7554  -1.7554  -1.2563  -1.2563  -1.1956
    -1.1941  -1.1940  -1.1721  -1.1635  -1.1635  -1.0749  -1.0615  -1.0615
    -1.0248  -1.0248  -0.9200  -0.9200  -0.8834  -0.8622  -0.8060  -0.7233
    -0.7233  -0.6353  -0.6353  -0.5851  -0.5851  -0.4113  -0.3707  -0.3707
    -0.1448  -0.1448  -0.0568  -0.0568   0.0234   0.0234   0.0393   0.0431
     0.0431   0.0555   0.0816   0.0817   0.1712   0.1712   0.2187   0.6684
     2.7312   2.7753   2.7753   2.8088   2.8088   2.8209   2.8209   2.8303
     2.8303   2.8362   2.8362   2.8384   2.8590   2.8590   2.8634   2.9518
     2.9519   3.0026   3.0026   3.0460   3.0461   3.3070   3.3659   3.3659
     3.3666   3.3666   3.3769   3.3770   3.4015   3.4270   3.4270   3.5102
     3.5103   3.5107   3.5107   3.5919   3.6215   3.6337   3.6337   3.6349
     3.7093   3.7441   3.7441   3.7689   3.7731   3.7731   4.3201   4.3201
     4.4240   4.4240   4.4913   4.4913

          k = 0.0417 0.0722 0.0000 (126337 PWs)   bands (ev):

   -60.2545 -60.2383 -60.2383 -60.2365 -60.2365 -60.2348 -60.2347 -60.2197
   -60.2191 -60.2190 -60.2185 -60.2185 -60.2184 -60.2179 -60.2179 -60.2173
   -34.5458 -34.5453 -34.5453 -34.4822 -34.4822 -34.4820 -34.4792 -34.4792
   -34.4760 -34.3861 -34.3861 -34.3813 -34.3687 -34.3687 -34.3508 -34.3508
   -34.3493 -34.3488 -34.3488 -34.3451 -34.3451 -34.3425 -34.3425 -34.3417
   -34.3417 -34.3311 -34.3311 -34.3263 -34.3114 -34.3101 -34.3100 -34.3089
   -34.3089 -34.3087 -34.3077 -34.3077 -34.3066 -34.2701 -34.2691 -34.2691
   -34.2317 -34.2317 -34.2280 -34.2280 -34.2235 -34.2235 -34.1866 -34.1857
   -13.4102 -12.6871 -12.6871 -12.5976 -12.5975 -12.5118 -12.5118 -12.1054
   -11.8111 -11.8111 -11.7750 -11.7750 -11.7406 -11.7406 -11.6792 -11.6387
   -11.6387 -11.5796 -11.5796 -11.5722 -11.5653 -11.5653 -11.5318 -11.3904
   -11.3793 -11.3793 -11.3762 -11.3731 -11.3731 -11.3408 -11.3408 -11.3255
    -5.0787  -5.0777  -5.0777  -4.9273  -4.4488  -4.4488  -4.4450  -4.4293
    -4.4293  -4.4046  -4.3509  -4.3294  -4.3294  -4.3279  -4.3279  -4.3164
    -4.3164  -4.2947  -4.2947  -4.1761  -4.1761  -4.1124  -4.1013  -4.0915
    -4.0915  -3.3940  -3.3927  -3.3927  -3.1935  -3.1935  -3.1568  -3.1568
    -3.1018  -3.1018  -3.0165  -3.0165  -2.9664  -2.9664  -2.9640  -2.9640
    -2.9552  -2.9548  -2.8966  -2.8966  -2.7767  -2.7767  -2.5937  -2.5743
    -2.5743  -2.5322  -2.5322  -2.5132  -2.5098  -2.5098  -2.5084  -2.3913
    -2.2900  -2.2900  -2.1476  -2.1476  -2.1000  -1.9838  -1.9674  -1.9201
    -1.9201  -1.8637  -1.8637  -1.7684  -1.7684  -1.2399  -1.2399  -1.1962
    -1.1952  -1.1951  -1.1616  -1.1616  -1.1524  -1.0769  -1.0769  -1.0571
    -1.0150  -1.0150  -0.9272  -0.9272  -0.8799  -0.8796  -0.8227  -0.7134
    -0.7134  -0.6424  -0.6424  -0.5980  -0.5980  -0.3933  -0.3641  -0.3641
    -0.1310  -0.1310  -0.0564  -0.0564   0.0239   0.0239   0.0264   0.0264
     0.0470   0.0525   0.0882   0.0882   0.1630   0.1631   0.2023   0.6694
     2.7458   2.7806   2.7806   2.8140   2.8140   2.8211   2.8211   2.8269
     2.8269   2.8354   2.8354   2.8367   2.8592   2.8592   2.8624   2.9566
     2.9566   2.9996   2.9996   3.0367   3.0367   3.3257   3.3689   3.3689
     3.3761   3.3772   3.3772   3.3804   3.3975   3.4443   3.4444   3.4980
     3.4980   3.5169   3.5169   3.5652   3.6170   3.6170   3.6281   3.6375
     3.7169   3.7431   3.7431   3.7665   3.7675   3.7675   4.3338   4.3338
     4.4179   4.4179   4.4765   4.4765

          k = 0.0333 0.0577 0.0000 (126355 PWs)   bands (ev):

   -60.2545 -60.2379 -60.2379 -60.2365 -60.2365 -60.2351 -60.2351 -60.2194
   -60.2189 -60.2189 -60.2185 -60.2185 -60.2184 -60.2180 -60.2180 -60.2175
   -34.5460 -34.5457 -34.5457 -34.4817 -34.4816 -34.4816 -34.4792 -34.4792
   -34.4769 -34.3826 -34.3826 -34.3814 -34.3686 -34.3686 -34.3543 -34.3543
   -34.3481 -34.3481 -34.3470 -34.3452 -34.3452 -34.3424 -34.3424 -34.3417
   -34.3417 -34.3326 -34.3326 -34.3286 -34.3108 -34.3098 -34.3098 -34.3089
   -34.3089 -34.3087 -34.3079 -34.3079 -34.3070 -34.2697 -34.2691 -34.2691
   -34.2308 -34.2308 -34.2278 -34.2278 -34.2242 -34.2242 -34.1861 -34.1856
   -13.4120 -12.6703 -12.6703 -12.5989 -12.5989 -12.5299 -12.5299 -12.1061
   -11.8043 -11.8043 -11.7755 -11.7755 -11.7479 -11.7479 -11.6629 -11.6312
   -11.6312 -11.5777 -11.5777 -11.5730 -11.5723 -11.5723 -11.5450 -11.3834
   -11.3786 -11.3786 -11.3766 -11.3697 -11.3697 -11.3438 -11.3438 -11.3314
    -5.0810  -5.0803  -5.0803  -4.9293  -4.4449  -4.4449  -4.4440  -4.4291
    -4.4291  -4.4117  -4.3294  -4.3258  -4.3258  -4.3248  -4.3248  -4.3174
    -4.3174  -4.2840  -4.2840  -4.1889  -4.1889  -4.1386  -4.0994  -4.0931
    -4.0931  -3.3948  -3.3940  -3.3940  -3.1874  -3.1874  -3.1565  -3.1565
    -3.1139  -3.1139  -2.9929  -2.9929  -2.9602  -2.9602  -2.9590  -2.9590
    -2.9531  -2.9527  -2.8970  -2.8970  -2.8010  -2.8010  -2.5867  -2.5709
    -2.5709  -2.5370  -2.5370  -2.5183  -2.5129  -2.5107  -2.5107  -2.3626
    -2.2860  -2.2860  -2.1711  -2.1711  -2.1292  -1.9797  -1.9693  -1.9033
    -1.9033  -1.8551  -1.8551  -1.7817  -1.7817  -1.2234  -1.2234  -1.1967
    -1.1960  -1.1960  -1.1601  -1.1601  -1.1346  -1.0926  -1.0926  -1.0393
    -1.0053  -1.0053  -0.9347  -0.9347  -0.8972  -0.8769  -0.8382  -0.7032
    -0.7032  -0.6484  -0.6484  -0.6108  -0.6108  -0.3779  -0.3587  -0.3587
    -0.1167  -0.1167  -0.0561  -0.0561   0.0098   0.0098   0.0242   0.0242
     0.0396   0.0660   0.0949   0.0950   0.1549   0.1550   0.1861   0.6702
     2.7596   2.7858   2.7858   2.8185   2.8185   2.8217   2.8217   2.8231
     2.8231   2.8334   2.8341   2.8341   2.8594   2.8594   2.8614   2.9623
     2.9623   2.9970   2.9970   3.0274   3.0274   3.3458   3.3708   3.3708
     3.3754   3.3833   3.3887   3.3887   3.3943   3.4617   3.4618   3.4857
     3.4857   3.5220   3.5221   3.5386   3.6002   3.6002   3.6335   3.6395
     3.7240   3.7427   3.7427   3.7624   3.7624   3.7637   4.3475   4.3475
     4.4129   4.4129   4.4617   4.4617

          k = 0.0250 0.0433 0.0000 (126359 PWs)   bands (ev):

   -60.2545 -60.2376 -60.2376 -60.2365 -60.2365 -60.2355 -60.2355 -60.2192
   -60.2188 -60.2188 -60.2185 -60.2185 -60.2184 -60.2181 -60.2181 -60.2177
   -34.5461 -34.5460 -34.5459 -34.4814 -34.4811 -34.4811 -34.4793 -34.4793
   -34.4778 -34.3815 -34.3790 -34.3790 -34.3685 -34.3685 -34.3578 -34.3578
   -34.3474 -34.3474 -34.3452 -34.3452 -34.3447 -34.3431 -34.3431 -34.3408
   -34.3408 -34.3340 -34.3340 -34.3309 -34.3103 -34.3096 -34.3096 -34.3088
   -34.3088 -34.3087 -34.3081 -34.3081 -34.3075 -34.2694 -34.2691 -34.2691
   -34.2299 -34.2299 -34.2276 -34.2276 -34.2250 -34.2250 -34.1858 -34.1855
   -13.4133 -12.6533 -12.6533 -12.6000 -12.6000 -12.5480 -12.5480 -12.1067
   -11.7975 -11.7975 -11.7760 -11.7760 -11.7551 -11.7551 -11.6470 -11.6236
   -11.6236 -11.5794 -11.5794 -11.5762 -11.5762 -11.5736 -11.5585 -11.3781
   -11.3781 -11.3770 -11.3764 -11.3663 -11.3663 -11.3469 -11.3468 -11.3375
    -5.0828  -5.0824  -5.0824  -4.9309  -4.4422  -4.4413  -4.4413  -4.4294
    -4.4294  -4.4181  -4.3230  -4.3230  -4.3223  -4.3223  -4.3182  -4.3182
    -4.3075  -4.2730  -4.2729  -4.2015  -4.2015  -4.1643  -4.0979  -4.0944
    -4.0944  -3.3954  -3.3950  -3.3949  -3.1806  -3.1806  -3.1563  -3.1563
    -3.1254  -3.1254  -2.9692  -2.9692  -2.9553  -2.9553  -2.9549  -2.9549
    -2.9514  -2.9511  -2.8972  -2.8972  -2.8253  -2.8253  -2.5794  -2.5672
    -2.5672  -2.5417  -2.5417  -2.5280  -2.5127  -2.5114  -2.5114  -2.3337
    -2.2797  -2.2797  -2.1928  -2.1928  -2.1584  -1.9766  -1.9707  -1.8868
    -1.8868  -1.8482  -1.8482  -1.7955  -1.7955  -1.2068  -1.2068  -1.1971
    -1.1967  -1.1967  -1.1589  -1.1589  -1.1192  -1.1085  -1.1085  -1.0215
    -0.9957  -0.9957  -0.9425  -0.9425  -0.9148  -0.8747  -0.8517  -0.6927
    -0.6927  -0.6531  -0.6531  -0.6233  -0.6233  -0.3656  -0.3545  -0.3545
    -0.1019  -0.1019  -0.0558  -0.0558  -0.0067  -0.0067   0.0245   0.0245
     0.0334   0.0800   0.1019   0.1019   0.1469   0.1470   0.1701   0.6708
     2.7726   2.7910   2.7910   2.8192   2.8192   2.8221   2.8221   2.8226
     2.8226   2.8286   2.8324   2.8324   2.8595   2.8595   2.8607   2.9688
     2.9688   2.9948   2.9948   3.0182   3.0182   3.3670   3.3723   3.3723
     3.3749   3.3856   3.3918   3.4004   3.4004   3.4734   3.4734   3.4792
     3.4792   3.5124   3.5261   3.5261   3.5832   3.5832   3.6377   3.6411
     3.7306   3.7430   3.7430   3.7578   3.7578   3.7604   4.3613   4.3614
     4.4089   4.4089   4.4471   4.4471

          k = 0.0167 0.0289 0.0000 (126343 PWs)   bands (ev):

   -60.2546 -60.2372 -60.2372 -60.2365 -60.2365 -60.2358 -60.2358 -60.2189
   -60.2187 -60.2187 -60.2184 -60.2184 -60.2184 -60.2182 -60.2182 -60.2180
   -34.5462 -34.5461 -34.5461 -34.4810 -34.4807 -34.4807 -34.4795 -34.4795
   -34.4786 -34.3815 -34.3755 -34.3755 -34.3685 -34.3685 -34.3613 -34.3613
   -34.3467 -34.3467 -34.3453 -34.3453 -34.3439 -34.3438 -34.3423 -34.3399
   -34.3399 -34.3353 -34.3353 -34.3331 -34.3098 -34.3093 -34.3093 -34.3088
   -34.3088 -34.3088 -34.3084 -34.3083 -34.3079 -34.2692 -34.2691 -34.2691
   -34.2291 -34.2291 -34.2275 -34.2275 -34.2258 -34.2258 -34.1856 -34.1854
   -13.4143 -12.6361 -12.6361 -12.6007 -12.6007 -12.5659 -12.5659 -12.1070
   -11.7906 -11.7906 -11.7763 -11.7763 -11.7623 -11.7623 -11.6314 -11.6161
   -11.6161 -11.5866 -11.5866 -11.5752 -11.5752 -11.5740 -11.5724 -11.3778
   -11.3778 -11.3773 -11.3696 -11.3630 -11.3629 -11.3500 -11.3500 -11.3436
    -5.0840  -5.0839  -5.0839  -4.9320  -4.4399  -4.4381  -4.4381  -4.4301
    -4.4301  -4.4238  -4.3210  -4.3210  -4.3206  -4.3206  -4.3188  -4.3188
    -4.2849  -4.2616  -4.2616  -4.2139  -4.2139  -4.1895  -4.0969  -4.0953
    -4.0953  -3.3959  -3.3957  -3.3956  -3.1731  -3.1731  -3.1561  -3.1561
    -3.1363  -3.1363  -2.9518  -2.9518  -2.9518  -2.9518  -2.9502  -2.9499
    -2.9454  -2.9454  -2.8975  -2.8975  -2.8495  -2.8495  -2.5716  -2.5634
    -2.5634  -2.5463  -2.5463  -2.5373  -2.5125  -2.5119  -2.5119  -2.3047
    -2.2709  -2.2709  -2.2127  -2.2127  -2.1877  -1.9743  -1.9717  -1.8706
    -1.8706  -1.8433  -1.8433  -1.8097  -1.8097  -1.1974  -1.1972  -1.1972
    -1.1903  -1.1903  -1.1580  -1.1580  -1.1247  -1.1246  -1.1072  -1.0036
    -0.9863  -0.9863  -0.9507  -0.9507  -0.9325  -0.8730  -0.8624  -0.6819
    -0.6819  -0.6565  -0.6565  -0.6356  -0.6356  -0.3564  -0.3514  -0.3514
    -0.0868  -0.0868  -0.0556  -0.0556  -0.0232  -0.0232   0.0246   0.0246
     0.0287   0.0942   0.1090   0.1090   0.1391   0.1391   0.1544   0.6712
     2.7847   2.7961   2.7961   2.8149   2.8149   2.8223   2.8238   2.8238
     2.8248   2.8248   2.8306   2.8306   2.8596   2.8596   2.8602   2.9760
     2.9760   2.9932   2.9932   3.0092   3.0092   3.3733   3.3733   3.3745
     3.3872   3.3892   3.3900   3.4123   3.4123   3.4610   3.4611   3.4866
     3.4967   3.4967   3.5291   3.5291   3.5661   3.5661   3.6408   3.6423
     3.7368   3.7439   3.7440   3.7538   3.7538   3.7566   4.3753   4.3753
     4.4060   4.4060   4.4325   4.4325

          k = 0.0083 0.0144 0.0000 (126347 PWs)   bands (ev):

   -60.2546 -60.2369 -60.2369 -60.2365 -60.2365 -60.2362 -60.2362 -60.2187
   -60.2186 -60.2185 -60.2184 -60.2184 -60.2184 -60.2183 -60.2183 -60.2182
   -34.5463 -34.5463 -34.5463 -34.4806 -34.4803 -34.4803 -34.4797 -34.4797
   -34.4793 -34.3816 -34.3720 -34.3719 -34.3684 -34.3684 -34.3649 -34.3649
   -34.3460 -34.3460 -34.3453 -34.3453 -34.3446 -34.3446 -34.3400 -34.3388
   -34.3388 -34.3365 -34.3365 -34.3354 -34.3093 -34.3091 -34.3091 -34.3088
   -34.3088 -34.3088 -34.3086 -34.3086 -34.3084 -34.2691 -34.2691 -34.2691
   -34.2282 -34.2282 -34.2274 -34.2274 -34.2266 -34.2266 -34.1854 -34.1854
   -13.4148 -12.6188 -12.6188 -12.6012 -12.6012 -12.5837 -12.5837 -12.1073
   -11.7836 -11.7836 -11.7765 -11.7765 -11.7695 -11.7695 -11.6161 -11.6086
   -11.6086 -11.5939 -11.5939 -11.5866 -11.5745 -11.5745 -11.5742 -11.3775
   -11.3775 -11.3774 -11.3629 -11.3596 -11.3596 -11.3531 -11.3531 -11.3499
    -5.0848  -5.0848  -5.0848  -4.9327  -4.4369  -4.4354  -4.4354  -4.4314
    -4.4314  -4.4288  -4.3197  -4.3197  -4.3195  -4.3195  -4.3191  -4.3191
    -4.2619  -4.2501  -4.2501  -4.2262  -4.2262  -4.2141  -4.0962  -4.0958
    -4.0958  -3.3961  -3.3961  -3.3961  -3.1649  -3.1649  -3.1561  -3.1560
    -3.1465  -3.1465  -2.9499  -2.9499  -2.9498  -2.9498  -2.9495  -2.9493
    -2.9216  -2.9216  -2.8976  -2.8976  -2.8736  -2.8736  -2.5635  -2.5593
    -2.5593  -2.5508  -2.5508  -2.5464  -2.5124  -2.5123  -2.5123  -2.2755
    -2.2598  -2.2598  -2.2306  -2.2305  -2.2170  -1.9729  -1.9723  -1.8548
    -1.8548  -1.8404  -1.8404  -1.8243  -1.8243  -1.1976  -1.1975  -1.1975
    -1.1738  -1.1738  -1.1575  -1.1575  -1.1409  -1.1409  -1.0994  -0.9858
    -0.9770  -0.9770  -0.9592  -0.9592  -0.9502  -0.8721  -0.8693  -0.6708
    -0.6708  -0.6586  -0.6586  -0.6476  -0.6476  -0.3509  -0.3496  -0.3496
    -0.0713  -0.0713  -0.0555  -0.0555  -0.0394  -0.0394   0.0247   0.0247
     0.0257   0.1088   0.1163   0.1163   0.1313   0.1313   0.1389   0.6715
     2.7958   2.8010   2.8010   2.8105   2.8105   2.8147   2.8253   2.8253
     2.8264   2.8264   2.8288   2.8288   2.8597   2.8597   2.8598   2.9837
     2.9837   2.9922   2.9922   3.0004   3.0004   3.3740   3.3740   3.3743
     3.3882   3.3889   3.4124   3.4243   3.4243   3.4487   3.4487   3.4612
     3.5141   3.5141   3.5309   3.5309   3.5488   3.5489   3.6426   3.6430
     3.7425   3.7455   3.7455   3.7505   3.7505   3.7524   4.3894   4.3895
     4.4043   4.4043   4.4180   4.4180

          k = 0.0000 0.0000 0.0000 (126355 PWs)   bands (ev):

   -60.2546 -60.2366 -60.2365 -60.2365 -60.2365 -60.2365 -60.2365 -60.2185
   -60.2185 -60.2184 -60.2184 -60.2184 -60.2184 -60.2184 -60.2184 -60.2184
   -34.5463 -34.5463 -34.5463 -34.4800 -34.4800 -34.4800 -34.4800 -34.4800
   -34.4800 -34.3816 -34.3684 -34.3684 -34.3684 -34.3684 -34.3684 -34.3684
   -34.3453 -34.3453 -34.3453 -34.3453 -34.3453 -34.3453 -34.3377 -34.3377
   -34.3377 -34.3377 -34.3377 -34.3377 -34.3089 -34.3088 -34.3088 -34.3088
   -34.3088 -34.3088 -34.3088 -34.3088 -34.3088 -34.2691 -34.2691 -34.2691
   -34.2274 -34.2274 -34.2274 -34.2274 -34.2274 -34.2274 -34.1854 -34.1854
   -13.4150 -12.6013 -12.6013 -12.6013 -12.6013 -12.6013 -12.6013 -12.1074
   -11.7766 -11.7766 -11.7766 -11.7766 -11.7766 -11.7765 -11.6012 -11.6012
   -11.6012 -11.6012 -11.6012 -11.6012 -11.5743 -11.5743 -11.5743 -11.3775
   -11.3775 -11.3775 -11.3564 -11.3564 -11.3564 -11.3564 -11.3564 -11.3563
    -5.0851  -5.0851  -5.0850  -4.9329  -4.4332  -4.4332  -4.4332  -4.4332
    -4.4332  -4.4332  -4.3193  -4.3193  -4.3192  -4.3192  -4.3192  -4.3192
    -4.2383  -4.2383  -4.2383  -4.2383  -4.2382  -4.2382  -4.0960  -4.0960
    -4.0960  -3.3962  -3.3962  -3.3962  -3.1560  -3.1560  -3.1560  -3.1560
    -3.1560  -3.1560  -2.9492  -2.9492  -2.9492  -2.9492  -2.9492  -2.9491
    -2.8976  -2.8976  -2.8976  -2.8976  -2.8976  -2.8976  -2.5551  -2.5551
    -2.5551  -2.5551  -2.5551  -2.5551  -2.5124  -2.5124  -2.5124  -2.2463
    -2.2463  -2.2463  -2.2463  -2.2463  -2.2463  -1.9725  -1.9725  -1.8394
    -1.8394  -1.8394  -1.8394  -1.8394  -1.8394  -1.1976  -1.1976  -1.1976
    -1.1573  -1.1573  -1.1573  -1.1573  -1.1573  -1.1573  -1.0967  -0.9680
    -0.9680  -0.9680  -0.9680  -0.9680  -0.9680  -0.8717  -0.8717  -0.6593
    -0.6593  -0.6593  -0.6593  -0.6593  -0.6593  -0.3490  -0.3490  -0.3490
    -0.0555  -0.0555  -0.0555  -0.0555  -0.0555  -0.0555   0.0247   0.0247
     0.0247   0.1237   0.1237   0.1237   0.1237   0.1237   0.1237   0.6716
     2.8058   2.8058   2.8058   2.8058   2.8058   2.8059   2.8270   2.8270
     2.8270   2.8270   2.8270   2.8270   2.8597   2.8597   2.8597   2.9919
     2.9919   2.9919   2.9919   2.9919   2.9919   3.3742   3.3742   3.3742
     3.3885   3.3885   3.4365   3.4365   3.4365   3.4365   3.4365   3.4365
     3.5315   3.5315   3.5315   3.5315   3.5315   3.5315   3.6432   3.6432
     3.7477   3.7477   3.7477   3.7477   3.7477   3.7477   4.4037   4.4037
     4.4037   4.4037   4.4037   4.4037

     Writing all to output data dir /home/nihal/Desktop/Otptf/Trial_2.save/ :
     XML data file, pseudopotentials, collected wavefunctions

     init_run     :      3.68s CPU      4.54s WALL (       1 calls)
     electrons    :    522.10s CPU    563.13s WALL (       1 calls)

     Called by init_run:
     wfcinit      :      0.00s CPU      0.00s WALL (       1 calls)
     wfcinit:atom :      0.06s CPU      0.14s WALL (       3 calls)
     wfcinit:wfcr :     17.60s CPU     17.98s WALL (       3 calls)
     potinit      :      0.54s CPU      0.64s WALL (       1 calls)
     hinit0       :      0.75s CPU      0.79s WALL (       1 calls)

     Called by electrons:
     c_bands      :    522.10s CPU    563.12s WALL (       1 calls)
     v_of_rho     :      0.38s CPU      0.42s WALL (       1 calls)
     v_h          :      0.03s CPU      0.04s WALL (       1 calls)
     v_xc         :      0.35s CPU      0.39s WALL (       1 calls)
     newd         :      1.54s CPU      2.21s WALL (       1 calls)

     Called by c_bands:
     init_us_2    :      0.24s CPU      0.31s WALL (       3 calls)
     cegterg      :    501.97s CPU    509.59s WALL (       3 calls)

     Called by sum_band:

     Called by *egterg:
     cdiaghg      :    245.23s CPU    247.86s WALL (      36 calls)
     cegterg:over :     89.27s CPU     89.59s WALL (      33 calls)
     cegterg:upda :     51.30s CPU     52.47s WALL (      33 calls)
     cegterg:last :      6.13s CPU      6.14s WALL (       3 calls)
     cdiaghg:chol :      8.00s CPU      8.01s WALL (      36 calls)
     cdiaghg:inve :      2.16s CPU      2.16s WALL (      36 calls)
     cdiaghg:para :     39.92s CPU     41.45s WALL (      72 calls)
     h_psi        :     91.26s CPU     94.11s WALL (      39 calls)
     s_psi        :     15.85s CPU     15.85s WALL (      39 calls)
     g_psi        :      0.40s CPU      0.40s WALL (      33 calls)

     Called by h_psi:
     h_psi:calbec :     25.92s CPU     25.96s WALL (      39 calls)
     vloc_psi     :     49.09s CPU     51.50s WALL (      39 calls)
                                        0.00s GPU  (      39 calls)
     add_vuspsi   :     15.77s CPU     15.78s WALL (      39 calls)

     General routines
     calbec       :     25.92s CPU     25.96s WALL (      39 calls)
     fft          :      0.71s CPU      0.73s WALL (      13 calls)
     ffts         :      0.09s CPU      0.09s WALL (       1 calls)
     fftw         :     38.40s CPU     40.63s WALL (   17124 calls)
     interpolate  :      0.12s CPU      0.13s WALL (       1 calls)
     davcio       :      0.38s CPU     76.97s WALL (     242 calls)

     Parallel routines

     PWSCF        :   8m52.13s CPU  10m33.53s WALL


   This run was terminated on:  18:30:19   5Jul2026            

=------------------------------------------------------------------------------=
   JOB DONE.
=------------------------------------------------------------------------------=
