
     Program PWSCF v.7.5 starts on  1Jul2026 at  4:51: 6 

     This program is part of the open-source Quantum ESPRESSO suite
     for quantum simulation of materials; please cite
         "P. Giannozzi et al., J. Phys.:Condens. Matter 21 395502 (2009);
         "P. Giannozzi et al., J. Phys.:Condens. Matter 29 465901 (2017);
         "P. Giannozzi et al., J. Chem. Phys. 152 154105 (2020);
          URL http://www.quantum-espresso.org", 
     in publications or presentations arising from this work. More details at
     http://www.quantum-espresso.org/quote

     Parallel version (MPI), running on     7 processors

     MPI processes distributed on     1 nodes
     20675 MiB available memory on the printing compute node when the environment starts

     Reading input from MoSt_relax.in

     Current dimensions of program PWSCF are:
     Max number of different atomic species (ntypx) = 10
     Max number of k-points (npk) =  40000
     Max angular momentum in pseudopotentials (lmaxx) =  4
     Found identity + (  0.0000  0.2500 -0.0000) symmetry
     This is a supercell, fractional translations are disabled
     Message from routine setup:
     using ibrav=0 with symmetry is DISCOURAGED, use correct ibrav instead

     R & G space division:  proc/nbgrp/npool/nimage =       7
     Subspace diagonalization in iterative solution of the eigenvalue problem:
     one sub-group per band group will be used
     scalapack distributed-memory algorithm (size of sub-group:  2*  2 procs)


     Parallelization info
     --------------------
     sticks:   dense  smooth     PW     G-vecs:    dense   smooth      PW
     Min        2860    1257    328               385038   112333   15028
     Max        2862    1258    329               385039   112336   15033
     Sum       20029    8803   2299              2695269   786343  105207

     Using Slab Decomposition



     bravais-lattice index     =            0
     lattice parameter (alat)  =      24.1153  a.u.
     unit-cell volume          =   14275.9760 (a.u.)^3
     number of atoms/cell      =           48
     number of atomic types    =            2
     number of electrons       =       416.00
     number of Kohn-Sham states=          208
     kinetic-energy cutoff     =      55.0000  Ry
     charge density cutoff     =     500.0000  Ry
     scf convergence threshold =      1.0E-08
     mixing beta               =       0.3000
     number of iterations used =            8  plain     mixing
     energy convergence thresh.=      1.0E-04
     force convergence thresh. =      1.0E-04
     Exchange-correlation=  SLA  PW   PBX  PBC
                           (   1   4   3   4   0   0   0)
     nstep                     =           50


     celldm(1)=  24.115292  celldm(2)=   0.000000  celldm(3)=   0.000000
     celldm(4)=   0.000000  celldm(5)=   0.000000  celldm(6)=   0.000000

     crystal axes: (cart. coord. in units of alat)
               a(1) = (   1.000000   0.000000   0.000000 )  
               a(2) = (  -0.500000   0.866025   0.000000 )  
               a(3) = (   0.000000   0.000000   1.175432 )  

     reciprocal axes: (cart. coord. in units 2 pi/alat)
               b(1) = (  1.000000  0.577350 -0.000000 )  
               b(2) = (  0.000000  1.154701  0.000000 )  
               b(3) = (  0.000000 -0.000000  0.850751 )  


     PseudoPot. # 1 for Mo read from file:
     /home/nihal/Desktop/pseudos/mo_pbe_v1.uspp.F.UPF
     MD5 check sum: 30c4dcd161f5d35cd49bb5239c51a633
     Pseudo is Ultrasoft + core correction, Zval = 14.0
     Generated by new atomic code, or converted to UPF format
     Using radial grid of  889 points,  6 beta functions with: 
                l(1) =   0
                l(2) =   0
                l(3) =   1
                l(4) =   1
                l(5) =   2
                l(6) =   2
     Q(r) pseudized with  6 coefficients,  rinner =    1.000   1.000   1.000
                                                       1.000   1.000

     PseudoPot. # 2 for S  read from file:
     /home/nihal/Desktop/pseudos/s_pbe_v1.4.uspp.F.UPF
     MD5 check sum: 88d86576ff6df21479756cfb9bdac1df
     Pseudo is Ultrasoft + core correction, Zval =  6.0
     Generated by new atomic code, or converted to UPF format
     Using radial grid of  907 points,  6 beta functions with: 
                l(1) =   0
                l(2) =   0
                l(3) =   1
                l(4) =   1
                l(5) =   2
                l(6) =   2
     Q(r) pseudized with  8 coefficients,  rinner =    1.300   1.300   1.300
                                                       1.300   1.300

     atomic species   valence    mass     pseudopotential
     Mo               14.00    95.95000     Mo( 1.00)
     S                 6.00    32.06500     S ( 1.00)

      6 Sym. Ops. (no inversion) found


                                    s                        frac. trans.

      isym =  1     identity                                     

 cryst.   s( 1) = (     1          0          0      )
                  (     0          1          0      )
                  (     0          0          1      )

 cart.    s( 1) = (  1.0000000  0.0000000  0.0000000 )
                  (  0.0000000  1.0000000  0.0000000 )
                  (  0.0000000  0.0000000  1.0000000 )


      isym =  2     120 deg rotation - cryst. axis [0,0,1]       

 cryst.   s( 2) = (     0          1          0      )
                  (    -1         -1          0      )
                  (     0          0          1      )

 cart.    s( 2) = ( -0.5000000 -0.8660254  0.0000000 )
                  (  0.8660254 -0.5000000  0.0000000 )
                  (  0.0000000  0.0000000  1.0000000 )


      isym =  3     120 deg rotation - cryst. axis [0,0,-1]      

 cryst.   s( 3) = (    -1         -1          0      )
                  (     1          0          0      )
                  (     0          0          1      )

 cart.    s( 3) = ( -0.5000000  0.8660254  0.0000000 )
                  ( -0.8660254 -0.5000000  0.0000000 )
                  (  0.0000000  0.0000000  1.0000000 )


      isym =  4     inv. 180 deg rotation - cart. axis [1,0,0]   

 cryst.   s( 4) = (    -1          0          0      )
                  (     1          1          0      )
                  (     0          0          1      )

 cart.    s( 4) = ( -1.0000000  0.0000000  0.0000000 )
                  (  0.0000000  1.0000000  0.0000000 )
                  (  0.0000000  0.0000000  1.0000000 )


      isym =  5     inv. 180 deg rotation - cryst. axis [0,1,0]  

 cryst.   s( 5) = (     1          1          0      )
                  (     0         -1          0      )
                  (     0          0          1      )

 cart.    s( 5) = (  0.5000000  0.8660254  0.0000000 )
                  (  0.8660254 -0.5000000  0.0000000 )
                  (  0.0000000  0.0000000  1.0000000 )


      isym =  6     inv. 180 deg rotation - cryst. axis [1,1,0]  

 cryst.   s( 6) = (     0         -1          0      )
                  (    -1          0          0      )
                  (     0          0          1      )

 cart.    s( 6) = (  0.5000000 -0.8660254  0.0000000 )
                  ( -0.8660254 -0.5000000  0.0000000 )
                  (  0.0000000  0.0000000  1.0000000 )


   Cartesian axes

     site n.     atom                  positions (alat units)
         1        Mo     tau(   1) = (   0.1250000   0.0721688   0.8744628  )
         2        Mo     tau(   2) = (   0.0000000   0.2886752   0.8744628  )
         3        Mo     tau(   3) = (  -0.1249999   0.5051815   0.8744628  )
         4        Mo     tau(   4) = (  -0.2500000   0.7216878   0.8744628  )
         5        Mo     tau(   5) = (   0.3750000   0.0721687   0.8744628  )
         6        Mo     tau(   6) = (   0.2499999   0.2886751   0.8744628  )
         7        Mo     tau(   7) = (   0.1249999   0.5051815   0.8744628  )
         8        Mo     tau(   8) = (   0.0000000   0.7216877   0.8744628  )
         9        Mo     tau(   9) = (   0.6250000   0.0721687   0.8744628  )
        10        Mo     tau(  10) = (   0.5000000   0.2886751   0.8744628  )
        11        Mo     tau(  11) = (   0.3750000   0.5051816   0.8744628  )
        12        Mo     tau(  12) = (   0.2500000   0.7216878   0.8744628  )
        13        Mo     tau(  13) = (   0.8750000   0.0721688   0.8744628  )
        14        Mo     tau(  14) = (   0.7500001   0.2886751   0.8744628  )
        15        Mo     tau(  15) = (   0.6250000   0.5051816   0.8744628  )
        16        Mo     tau(  16) = (   0.5000000   0.7216879   0.8744628  )
        17        S      tau(  17) = (   0.0000000   0.1443377   0.9967535  )
        18        S      tau(  18) = (  -0.1250000   0.3608440   0.9967534  )
        19        S      tau(  19) = (  -0.2499999   0.5773503   0.9967534  )
        20        S      tau(  20) = (  -0.3749999   0.7938566   0.9967535  )
        21        S      tau(  21) = (   0.2500001   0.1443376   0.9967535  )
        22        S      tau(  22) = (   0.1250000   0.3608440   0.9967534  )
        23        S      tau(  23) = (   0.0000000   0.5773503   0.9967533  )
        24        S      tau(  24) = (  -0.1249999   0.7938565   0.9967534  )
        25        S      tau(  25) = (   0.5000000   0.1443376   0.9967535  )
        26        S      tau(  26) = (   0.3750000   0.3608439   0.9967535  )
        27        S      tau(  27) = (   0.2499999   0.5773503   0.9967534  )
        28        S      tau(  28) = (   0.1249999   0.7938565   0.9967534  )
        29        S      tau(  29) = (   0.7499999   0.1443376   0.9967535  )
        30        S      tau(  30) = (   0.6250000   0.3608439   0.9967535  )
        31        S      tau(  31) = (   0.5000000   0.5773502   0.9967535  )
        32        S      tau(  32) = (   0.3749999   0.7938566   0.9967535  )
        33        S      tau(  33) = (   0.0000000   0.1443377   0.7521727  )
        34        S      tau(  34) = (  -0.1250000   0.3608440   0.7521728  )
        35        S      tau(  35) = (  -0.2499999   0.5773503   0.7521728  )
        36        S      tau(  36) = (  -0.3749999   0.7938566   0.7521727  )
        37        S      tau(  37) = (   0.2500001   0.1443376   0.7521728  )
        38        S      tau(  38) = (   0.1250000   0.3608440   0.7521728  )
        39        S      tau(  39) = (   0.0000000   0.5773503   0.7521730  )
        40        S      tau(  40) = (  -0.1249999   0.7938565   0.7521728  )
        41        S      tau(  41) = (   0.5000000   0.1443376   0.7521728  )
        42        S      tau(  42) = (   0.3750000   0.3608439   0.7521728  )
        43        S      tau(  43) = (   0.2499999   0.5773503   0.7521728  )
        44        S      tau(  44) = (   0.1249999   0.7938565   0.7521728  )
        45        S      tau(  45) = (   0.7499999   0.1443376   0.7521728  )
        46        S      tau(  46) = (   0.6250000   0.3608439   0.7521728  )
        47        S      tau(  47) = (   0.5000000   0.5773502   0.7521728  )
        48        S      tau(  48) = (   0.3749999   0.7938566   0.7521727  )

   Crystallographic axes

     site n.     atom                  positions (cryst. coord.)
         1        Mo     tau(   1) = (  0.1666666  0.0833333  0.7439500  )
         2        Mo     tau(   2) = (  0.1666667  0.3333334  0.7439500  )
         3        Mo     tau(   3) = (  0.1666668  0.5833334  0.7439500  )
         4        Mo     tau(   4) = (  0.1666667  0.8333333  0.7439500  )
         5        Mo     tau(   5) = (  0.4166666  0.0833333  0.7439500  )
         6        Mo     tau(   6) = (  0.4166666  0.3333333  0.7439500  )
         7        Mo     tau(   7) = (  0.4166666  0.5833334  0.7439500  )
         8        Mo     tau(   8) = (  0.4166666  0.8333332  0.7439500  )
         9        Mo     tau(   9) = (  0.6666666  0.0833333  0.7439500  )
        10        Mo     tau(  10) = (  0.6666666  0.3333333  0.7439500  )
        11        Mo     tau(  11) = (  0.6666667  0.5833334  0.7439500  )
        12        Mo     tau(  12) = (  0.6666666  0.8333333  0.7439500  )
        13        Mo     tau(  13) = (  0.9166667  0.0833333  0.7439500  )
        14        Mo     tau(  14) = (  0.9166667  0.3333333  0.7439500  )
        15        Mo     tau(  15) = (  0.9166667  0.5833334  0.7439500  )
        16        Mo     tau(  16) = (  0.9166666  0.8333334  0.7439500  )
        17        S      tau(  17) = (  0.0833334  0.1666668  0.8479889  )
        18        S      tau(  18) = (  0.0833334  0.4166668  0.8479888  )
        19        S      tau(  19) = (  0.0833335  0.6666667  0.8479888  )
        20        S      tau(  20) = (  0.0833334  0.9166666  0.8479889  )
        21        S      tau(  21) = (  0.3333334  0.1666667  0.8479889  )
        22        S      tau(  22) = (  0.3333334  0.4166668  0.8479888  )
        23        S      tau(  23) = (  0.3333334  0.6666667  0.8479887  )
        24        S      tau(  24) = (  0.3333334  0.9166665  0.8479888  )
        25        S      tau(  25) = (  0.5833333  0.1666667  0.8479889  )
        26        S      tau(  26) = (  0.5833334  0.4166667  0.8479889  )
        27        S      tau(  27) = (  0.5833332  0.6666667  0.8479888  )
        28        S      tau(  28) = (  0.5833332  0.9166665  0.8479888  )
        29        S      tau(  29) = (  0.8333333  0.1666667  0.8479889  )
        30        S      tau(  30) = (  0.8333333  0.4166667  0.8479889  )
        31        S      tau(  31) = (  0.8333333  0.6666666  0.8479889  )
        32        S      tau(  32) = (  0.8333332  0.9166666  0.8479889  )
        33        S      tau(  33) = (  0.0833334  0.1666668  0.6399116  )
        34        S      tau(  34) = (  0.0833334  0.4166668  0.6399117  )
        35        S      tau(  35) = (  0.0833335  0.6666667  0.6399117  )
        36        S      tau(  36) = (  0.0833334  0.9166666  0.6399116  )
        37        S      tau(  37) = (  0.3333334  0.1666667  0.6399116  )
        38        S      tau(  38) = (  0.3333334  0.4166668  0.6399117  )
        39        S      tau(  39) = (  0.3333334  0.6666667  0.6399118  )
        40        S      tau(  40) = (  0.3333334  0.9166665  0.6399117  )
        41        S      tau(  41) = (  0.5833333  0.1666667  0.6399117  )
        42        S      tau(  42) = (  0.5833334  0.4166667  0.6399117  )
        43        S      tau(  43) = (  0.5833332  0.6666667  0.6399117  )
        44        S      tau(  44) = (  0.5833332  0.9166665  0.6399117  )
        45        S      tau(  45) = (  0.8333333  0.1666667  0.6399116  )
        46        S      tau(  46) = (  0.8333333  0.4166667  0.6399117  )
        47        S      tau(  47) = (  0.8333333  0.6666666  0.6399116  )
        48        S      tau(  48) = (  0.8333332  0.9166666  0.6399116  )

     number of k points=     7
                       cart. coord. in units 2pi/alat
        k(    1) = (   0.0000000   0.0000000   0.0000000), wk =   0.0555556
        k(    2) = (   0.0000000   0.1924501   0.0000000), wk =   0.3333333
        k(    3) = (   0.0000000   0.3849002   0.0000000), wk =   0.3333333
        k(    4) = (   0.0000000  -0.5773503   0.0000000), wk =   0.1666667
        k(    5) = (   0.1666667   0.2886751   0.0000000), wk =   0.3333333
        k(    6) = (   0.1666667   0.4811252   0.0000000), wk =   0.6666667
        k(    7) = (   0.3333333   0.5773503   0.0000000), wk =   0.1111111

                       cryst. coord.
        k(    1) = (   0.0000000   0.0000000   0.0000000), wk =   0.0555556
        k(    2) = (   0.0000000   0.1666667   0.0000000), wk =   0.3333333
        k(    3) = (   0.0000000   0.3333333   0.0000000), wk =   0.3333333
        k(    4) = (   0.0000000  -0.5000000   0.0000000), wk =   0.1666667
        k(    5) = (   0.1666667   0.1666667   0.0000000), wk =   0.3333333
        k(    6) = (   0.1666667   0.3333333   0.0000000), wk =   0.6666667
        k(    7) = (   0.3333333   0.3333333   0.0000000), wk =   0.1111111

     Dense  grid:  2695269 G-vectors     FFT dimensions: ( 180, 180, 216)

     Smooth grid:   786343 G-vectors     FFT dimensions: ( 120, 120, 135)

     Dynamical RAM for                 wfc:      44.58 MB

     Dynamical RAM for     wfc (w. buffer):     356.66 MB

     Dynamical RAM for           str. fact:      11.75 MB

     Dynamical RAM for           local pot:       0.00 MB

     Dynamical RAM for          nlocal pot:     185.19 MB

     Dynamical RAM for                qrad:       3.59 MB

     Dynamical RAM for          rho,v,vnew:      40.61 MB

     Dynamical RAM for               rhoin:      13.54 MB

     Dynamical RAM for            rho*nmix:      94.00 MB

     Dynamical RAM for           G-vectors:      22.89 MB

     Dynamical RAM for          h,s,v(r/c):       1.98 MB

     Dynamical RAM for          <psi|beta>:       2.74 MB

     Dynamical RAM for                 psi:      89.17 MB

     Dynamical RAM for                hpsi:      89.17 MB

     Dynamical RAM for                spsi:      89.17 MB

     Dynamical RAM for      wfcinit/wfcrot:      90.16 MB

     Dynamical RAM for           addusdens:    1280.80 MB

     Dynamical RAM for          addusforce:    1648.12 MB

     Dynamical RAM for         addusstress:    1180.92 MB

     Estimated static dynamical RAM per process >     690.17 MB

     Estimated max dynamical RAM per process >       2.38 GB

     Estimated total dynamical RAM >      16.63 GB

     Initial potential from superposition of free atoms

     starting charge     415.9818, renormalised to     416.0000

     negative rho (up, down):  2.823E-03 0.000E+00
     Starting wfcs are  336 randomized atomic wfcs

     total cpu time spent up to now is       37.3 secs

     Self-consistent Calculation

     iteration #  1     ecut=    55.00 Ry     beta= 0.30
     Davidson diagonalization with overlap

---- Real-time Memory Report at c_bands before calling an iterative solver
          1490 MiB given to the printing process from OS
             0 MiB allocation reported by mallinfo(arena+hblkhd)
         15445 MiB available memory on the node where the printing process lives
------------------
     ethr =  1.00E-02,  avg # of iterations =  2.0

     Threshold (ethr) on eigenvalues was too large:
     Diagonalizing with lowered threshold

     Davidson diagonalization with overlap

---- Real-time Memory Report at c_bands before calling an iterative solver
          2038 MiB given to the printing process from OS
             0 MiB allocation reported by mallinfo(arena+hblkhd)
         13400 MiB available memory on the node where the printing process lives
------------------
     ethr =  2.80E-04,  avg # of iterations =  4.0

     negative rho (up, down):  2.882E-03 0.000E+00

     total cpu time spent up to now is      197.7 secs

     total energy              =   -3003.63820158 Ry
     estimated scf accuracy    <       1.63681263 Ry

     iteration #  2     ecut=    55.00 Ry     beta= 0.30
     Davidson diagonalization with overlap

---- Real-time Memory Report at c_bands before calling an iterative solver
          2068 MiB given to the printing process from OS
             0 MiB allocation reported by mallinfo(arena+hblkhd)
         12888 MiB available memory on the node where the printing process lives
------------------
     ethr =  3.93E-04,  avg # of iterations =  2.0

     negative rho (up, down):  2.945E-03 0.000E+00

     total cpu time spent up to now is      275.4 secs

     total energy              =   -3003.67065508 Ry
     estimated scf accuracy    <       0.34293604 Ry

     iteration #  3     ecut=    55.00 Ry     beta= 0.30
     Davidson diagonalization with overlap

---- Real-time Memory Report at c_bands before calling an iterative solver
          2069 MiB given to the printing process from OS
             0 MiB allocation reported by mallinfo(arena+hblkhd)
         12915 MiB available memory on the node where the printing process lives
------------------
     ethr =  8.24E-05,  avg # of iterations =  2.0

     negative rho (up, down):  2.927E-03 0.000E+00

     total cpu time spent up to now is      358.5 secs

     total energy              =   -3003.71469253 Ry
     estimated scf accuracy    <       0.05921045 Ry

     iteration #  4     ecut=    55.00 Ry     beta= 0.30
     Davidson diagonalization with overlap

---- Real-time Memory Report at c_bands before calling an iterative solver
          2069 MiB given to the printing process from OS
             0 MiB allocation reported by mallinfo(arena+hblkhd)
         12896 MiB available memory on the node where the printing process lives
------------------
     ethr =  1.42E-05,  avg # of iterations =  4.3

     negative rho (up, down):  2.878E-03 0.000E+00

     total cpu time spent up to now is      448.8 secs

     total energy              =   -3003.71146043 Ry
     estimated scf accuracy    <       0.03072022 Ry

     iteration #  5     ecut=    55.00 Ry     beta= 0.30
     Davidson diagonalization with overlap

---- Real-time Memory Report at c_bands before calling an iterative solver
          2069 MiB given to the printing process from OS
             0 MiB allocation reported by mallinfo(arena+hblkhd)
         12836 MiB available memory on the node where the printing process lives
------------------
     ethr =  7.38E-06,  avg # of iterations =  6.0

     negative rho (up, down):  2.820E-03 0.000E+00

     total cpu time spent up to now is      589.5 secs

     total energy              =   -3003.69201142 Ry
     estimated scf accuracy    <       0.32657636 Ry

     iteration #  6     ecut=    55.00 Ry     beta= 0.30
     Davidson diagonalization with overlap

---- Real-time Memory Report at c_bands before calling an iterative solver
          2069 MiB given to the printing process from OS
             0 MiB allocation reported by mallinfo(arena+hblkhd)
         12856 MiB available memory on the node where the printing process lives
------------------
     ethr =  7.38E-06,  avg # of iterations =  5.9

     negative rho (up, down):  2.825E-03 0.000E+00

     total cpu time spent up to now is      710.2 secs

     total energy              =   -3003.72269344 Ry
     estimated scf accuracy    <       0.00880146 Ry

     iteration #  7     ecut=    55.00 Ry     beta= 0.30
     Davidson diagonalization with overlap

---- Real-time Memory Report at c_bands before calling an iterative solver
          2069 MiB given to the printing process from OS
             0 MiB allocation reported by mallinfo(arena+hblkhd)
         13162 MiB available memory on the node where the printing process lives
------------------
     ethr =  2.12E-06,  avg # of iterations =  2.6

     negative rho (up, down):  2.817E-03 0.000E+00

     total cpu time spent up to now is      783.6 secs

     total energy              =   -3003.72296829 Ry
     estimated scf accuracy    <       0.00271707 Ry

     iteration #  8     ecut=    55.00 Ry     beta= 0.30
     Davidson diagonalization with overlap

---- Real-time Memory Report at c_bands before calling an iterative solver
          2069 MiB given to the printing process from OS
             0 MiB allocation reported by mallinfo(arena+hblkhd)
         12819 MiB available memory on the node where the printing process lives
------------------
     ethr =  6.53E-07,  avg # of iterations =  4.0

     negative rho (up, down):  2.812E-03 0.000E+00

     total cpu time spent up to now is      870.3 secs

     total energy              =   -3003.72344482 Ry
     estimated scf accuracy    <       0.00012641 Ry

     iteration #  9     ecut=    55.00 Ry     beta= 0.30
     Davidson diagonalization with overlap

---- Real-time Memory Report at c_bands before calling an iterative solver
          2073 MiB given to the printing process from OS
             0 MiB allocation reported by mallinfo(arena+hblkhd)
         12896 MiB available memory on the node where the printing process lives
------------------
     ethr =  3.04E-08,  avg # of iterations =  7.3

     negative rho (up, down):  2.811E-03 0.000E+00

     total cpu time spent up to now is     1020.4 secs

     total energy              =   -3003.72364396 Ry
     estimated scf accuracy    <       0.00029358 Ry

     iteration # 10     ecut=    55.00 Ry     beta= 0.30
     Davidson diagonalization with overlap

---- Real-time Memory Report at c_bands before calling an iterative solver
          2092 MiB given to the printing process from OS
             0 MiB allocation reported by mallinfo(arena+hblkhd)
         12743 MiB available memory on the node where the printing process lives
------------------
     ethr =  3.04E-08,  avg # of iterations =  1.4

     negative rho (up, down):  2.808E-03 0.000E+00

     total cpu time spent up to now is     1084.2 secs

     total energy              =   -3003.72355736 Ry
     estimated scf accuracy    <       0.00030927 Ry

     iteration # 11     ecut=    55.00 Ry     beta= 0.30
     Davidson diagonalization with overlap

---- Real-time Memory Report at c_bands before calling an iterative solver
          2092 MiB given to the printing process from OS
             0 MiB allocation reported by mallinfo(arena+hblkhd)
         12979 MiB available memory on the node where the printing process lives
------------------
     ethr =  3.04E-08,  avg # of iterations =  4.1

     negative rho (up, down):  2.809E-03 0.000E+00

     total cpu time spent up to now is     1177.0 secs

     total energy              =   -3003.72359148 Ry
     estimated scf accuracy    <       0.00001938 Ry

     iteration # 12     ecut=    55.00 Ry     beta= 0.30
     Davidson diagonalization with overlap

---- Real-time Memory Report at c_bands before calling an iterative solver
          2092 MiB given to the printing process from OS
             0 MiB allocation reported by mallinfo(arena+hblkhd)
         12823 MiB available memory on the node where the printing process lives
------------------
     ethr =  4.66E-09,  avg # of iterations =  4.9

     negative rho (up, down):  2.807E-03 0.000E+00

     total cpu time spent up to now is     1257.4 secs

     total energy              =   -3003.72358855 Ry
     estimated scf accuracy    <       0.00003354 Ry

     iteration # 13     ecut=    55.00 Ry     beta= 0.30
     Davidson diagonalization with overlap

---- Real-time Memory Report at c_bands before calling an iterative solver
          2092 MiB given to the printing process from OS
             0 MiB allocation reported by mallinfo(arena+hblkhd)
         12741 MiB available memory on the node where the printing process lives
------------------
     ethr =  4.66E-09,  avg # of iterations =  4.4

     negative rho (up, down):  2.808E-03 0.000E+00

     total cpu time spent up to now is     1359.2 secs

     total energy              =   -3003.72358968 Ry
     estimated scf accuracy    <       0.00003335 Ry

     iteration # 14     ecut=    55.00 Ry     beta= 0.30
     Davidson diagonalization with overlap

---- Real-time Memory Report at c_bands before calling an iterative solver
          2092 MiB given to the printing process from OS
             0 MiB allocation reported by mallinfo(arena+hblkhd)
         12999 MiB available memory on the node where the printing process lives
------------------
     ethr =  4.66E-09,  avg # of iterations =  5.0

     negative rho (up, down):  2.808E-03 0.000E+00

     total cpu time spent up to now is     1431.3 secs

     total energy              =   -3003.72358855 Ry
     estimated scf accuracy    <       0.00001366 Ry

     iteration # 15     ecut=    55.00 Ry     beta= 0.30
     Davidson diagonalization with overlap

---- Real-time Memory Report at c_bands before calling an iterative solver
          2092 MiB given to the printing process from OS
             0 MiB allocation reported by mallinfo(arena+hblkhd)
         12743 MiB available memory on the node where the printing process lives
------------------
     ethr =  3.28E-09,  avg # of iterations =  4.3

     negative rho (up, down):  2.809E-03 0.000E+00

     total cpu time spent up to now is     1510.4 secs

     total energy              =   -3003.72358991 Ry
     estimated scf accuracy    <       0.00000098 Ry

     iteration # 16     ecut=    55.00 Ry     beta= 0.30
     Davidson diagonalization with overlap

---- Real-time Memory Report at c_bands before calling an iterative solver
          2092 MiB given to the printing process from OS
             0 MiB allocation reported by mallinfo(arena+hblkhd)
         12741 MiB available memory on the node where the printing process lives
------------------
     ethr =  2.35E-10,  avg # of iterations =  5.9

     negative rho (up, down):  2.808E-03 0.000E+00

     total cpu time spent up to now is     1625.5 secs

     total energy              =   -3003.72359022 Ry
     estimated scf accuracy    <       0.00000104 Ry

     iteration # 17     ecut=    55.00 Ry     beta= 0.30
     Davidson diagonalization with overlap

---- Real-time Memory Report at c_bands before calling an iterative solver
          2092 MiB given to the printing process from OS
             0 MiB allocation reported by mallinfo(arena+hblkhd)
         12743 MiB available memory on the node where the printing process lives
------------------
     ethr =  2.35E-10,  avg # of iterations =  4.6

     negative rho (up, down):  2.808E-03 0.000E+00

     total cpu time spent up to now is     1724.4 secs

     total energy              =   -3003.72359041 Ry
     estimated scf accuracy    <       0.00000036 Ry

     iteration # 18     ecut=    55.00 Ry     beta= 0.30
     Davidson diagonalization with overlap

---- Real-time Memory Report at c_bands before calling an iterative solver
          2092 MiB given to the printing process from OS
             0 MiB allocation reported by mallinfo(arena+hblkhd)
         12730 MiB available memory on the node where the printing process lives
------------------
     ethr =  8.69E-11,  avg # of iterations =  4.0

     negative rho (up, down):  2.808E-03 0.000E+00

     total cpu time spent up to now is     1804.8 secs

     total energy              =   -3003.72359047 Ry
     estimated scf accuracy    <       0.00000003 Ry

     iteration # 19     ecut=    55.00 Ry     beta= 0.30
     Davidson diagonalization with overlap

---- Real-time Memory Report at c_bands before calling an iterative solver
          2092 MiB given to the printing process from OS
             0 MiB allocation reported by mallinfo(arena+hblkhd)
         12698 MiB available memory on the node where the printing process lives
------------------
     ethr =  6.86E-12,  avg # of iterations =  6.4

     negative rho (up, down):  2.808E-03 0.000E+00

     total cpu time spent up to now is     1944.2 secs

     total energy              =   -3003.72359049 Ry
     estimated scf accuracy    <       0.00000008 Ry

     iteration # 20     ecut=    55.00 Ry     beta= 0.30
     Davidson diagonalization with overlap

---- Real-time Memory Report at c_bands before calling an iterative solver
          2092 MiB given to the printing process from OS
             0 MiB allocation reported by mallinfo(arena+hblkhd)
         13088 MiB available memory on the node where the printing process lives
------------------
     ethr =  6.86E-12,  avg # of iterations =  5.0

     negative rho (up, down):  2.808E-03 0.000E+00

     total cpu time spent up to now is     2019.1 secs

     total energy              =   -3003.72359048 Ry
     estimated scf accuracy    <       0.00000002 Ry

     iteration # 21     ecut=    55.00 Ry     beta= 0.30
     Davidson diagonalization with overlap

---- Real-time Memory Report at c_bands before calling an iterative solver
          2092 MiB given to the printing process from OS
             0 MiB allocation reported by mallinfo(arena+hblkhd)
         12997 MiB available memory on the node where the printing process lives
------------------
     ethr =  5.55E-12,  avg # of iterations =  8.0

     negative rho (up, down):  2.808E-03 0.000E+00

     total cpu time spent up to now is     2124.0 secs

     total energy              =   -3003.72359049 Ry
     estimated scf accuracy    <       0.00000004 Ry

     iteration # 22     ecut=    55.00 Ry     beta= 0.30
     Davidson diagonalization with overlap

---- Real-time Memory Report at c_bands before calling an iterative solver
          2092 MiB given to the printing process from OS
             0 MiB allocation reported by mallinfo(arena+hblkhd)
         12970 MiB available memory on the node where the printing process lives
------------------
     ethr =  5.55E-12,  avg # of iterations =  2.0

     negative rho (up, down):  2.808E-03 0.000E+00

     total cpu time spent up to now is     2192.1 secs

     total energy              =   -3003.72359049 Ry
     estimated scf accuracy    <       0.00000002 Ry

     iteration # 23     ecut=    55.00 Ry     beta= 0.30
     Davidson diagonalization with overlap

---- Real-time Memory Report at c_bands before calling an iterative solver
          2092 MiB given to the printing process from OS
             0 MiB allocation reported by mallinfo(arena+hblkhd)
         12985 MiB available memory on the node where the printing process lives
------------------
     ethr =  5.55E-12,  avg # of iterations =  5.0

     negative rho (up, down):  2.808E-03 0.000E+00

     total cpu time spent up to now is     2274.4 secs

     End of self-consistent calculation

          k = 0.0000 0.0000 0.0000 ( 98419 PWs)   bands (ev):

   -60.2545 -60.2365 -60.2365 -60.2365 -60.2365 -60.2365 -60.2365 -60.2184
   -60.2184 -60.2184 -60.2184 -60.2184 -60.2184 -60.2184 -60.2184 -60.2183
   -34.5458 -34.5458 -34.5458 -34.4796 -34.4795 -34.4795 -34.4795 -34.4795
   -34.4795 -34.3813 -34.3680 -34.3680 -34.3680 -34.3680 -34.3680 -34.3680
   -34.3451 -34.3451 -34.3451 -34.3451 -34.3451 -34.3450 -34.3374 -34.3374
   -34.3373 -34.3373 -34.3373 -34.3373 -34.3087 -34.3087 -34.3086 -34.3086
   -34.3086 -34.3086 -34.3086 -34.3086 -34.3086 -34.2687 -34.2687 -34.2687
   -34.2271 -34.2271 -34.2271 -34.2270 -34.2270 -34.2270 -34.1850 -34.1850
   -13.4131 -12.5995 -12.5995 -12.5995 -12.5995 -12.5995 -12.5995 -12.1072
   -11.7760 -11.7760 -11.7760 -11.7760 -11.7760 -11.7760 -11.5994 -11.5994
   -11.5994 -11.5994 -11.5994 -11.5993 -11.5724 -11.5724 -11.5724 -11.3764
   -11.3763 -11.3763 -11.3553 -11.3553 -11.3553 -11.3553 -11.3553 -11.3553
    -5.0835  -5.0835  -5.0835  -4.9312  -4.4313  -4.4313  -4.4313  -4.4313
    -4.4313  -4.4313  -4.3169  -4.3169  -4.3169  -4.3169  -4.3169  -4.3169
    -4.2362  -4.2362  -4.2362  -4.2362  -4.2362  -4.2362  -4.0954  -4.0954
    -4.0954  -3.3947  -3.3947  -3.3947  -3.1543  -3.1543  -3.1543  -3.1543
    -3.1542  -3.1542  -2.9480  -2.9480  -2.9480  -2.9480  -2.9480  -2.9480
    -2.8964  -2.8964  -2.8964  -2.8964  -2.8964  -2.8964  -2.5546  -2.5546
    -2.5546  -2.5546  -2.5546  -2.5546  -2.5099  -2.5099  -2.5099  -2.2450
    -2.2450  -2.2450  -2.2450  -2.2450  -2.2450  -1.9693  -1.9693  -1.8369
    -1.8369  -1.8369  -1.8369  -1.8369  -1.8369  -1.1985  -1.1985  -1.1985
    -1.1545  -1.1545  -1.1545  -1.1545  -1.1545  -1.1545  -1.0978  -0.9687
    -0.9687  -0.9686  -0.9686  -0.9686  -0.9686  -0.8693  -0.8693  -0.6601
    -0.6601  -0.6600  -0.6600  -0.6600  -0.6600  -0.3472  -0.3472  -0.3472
    -0.0556  -0.0556  -0.0556  -0.0556  -0.0556  -0.0556   0.0250   0.0250
     0.0250   0.1249   0.1249   0.1249   0.1249   0.1249   0.1249   0.6701

     occupation numbers 
     1.0000   1.0000   1.0000   1.0000   1.0000   1.0000   1.0000   1.0000
     1.0000   1.0000   1.0000   1.0000   1.0000   1.0000   1.0000   1.0000
     1.0000   1.0000   1.0000   1.0000   1.0000   1.0000   1.0000   1.0000
     1.0000   1.0000   1.0000   1.0000   1.0000   1.0000   1.0000   1.0000
     1.0000   1.0000   1.0000   1.0000   1.0000   1.0000   1.0000   1.0000
     1.0000   1.0000   1.0000   1.0000   1.0000   1.0000   1.0000   1.0000
     1.0000   1.0000   1.0000   1.0000   1.0000   1.0000   1.0000   1.0000
     1.0000   1.0000   1.0000   1.0000   1.0000   1.0000   1.0000   1.0000
     1.0000   1.0000   1.0000   1.0000   1.0000   1.0000   1.0000   1.0000
     1.0000   1.0000   1.0000   1.0000   1.0000   1.0000   1.0000   1.0000
     1.0000   1.0000   1.0000   1.0000   1.0000   1.0000   1.0000   1.0000
     1.0000   1.0000   1.0000   1.0000   1.0000   1.0000   1.0000   1.0000
     1.0000   1.0000   1.0000   1.0000   1.0000   1.0000   1.0000   1.0000
     1.0000   1.0000   1.0000   1.0000   1.0000   1.0000   1.0000   1.0000
     1.0000   1.0000   1.0000   1.0000   1.0000   1.0000   1.0000   1.0000
     1.0000   1.0000   1.0000   1.0000   1.0000   1.0000   1.0000   1.0000
     1.0000   1.0000   1.0000   1.0000   1.0000   1.0000   1.0000   1.0000
     1.0000   1.0000   1.0000   1.0000   1.0000   1.0000   1.0000   1.0000
     1.0000   1.0000   1.0000   1.0000   1.0000   1.0000   1.0000   1.0000
     1.0000   1.0000   1.0000   1.0000   1.0000   1.0000   1.0000   1.0000
     1.0000   1.0000   1.0000   1.0000   1.0000   1.0000   1.0000   1.0000
     1.0000   1.0000   1.0000   1.0000   1.0000   1.0000   1.0000   1.0000
     1.0000   1.0000   1.0000   1.0000   1.0000   1.0000   1.0000   1.0000
     1.0000   1.0000   1.0000   1.0000   1.0000   1.0000   1.0000   1.0000
     1.0000   1.0000   1.0000   1.0000   1.0000   1.0000   1.0000   1.0000
     1.0000   1.0000   1.0000   1.0000   1.0000   1.0000   1.0000   1.0000

          k = 0.0000 0.1925 0.0000 ( 98305 PWs)   bands (ev):

   -60.2539 -60.2412 -60.2385 -60.2385 -60.2338 -60.2338 -60.2318 -60.2210
   -60.2210 -60.2190 -60.2184 -60.2184 -60.2184 -60.2184 -60.2164 -60.2163
   -34.5424 -34.5424 -34.5398 -34.4858 -34.4858 -34.4834 -34.4834 -34.4710
   -34.4710 -34.4145 -34.3924 -34.3924 -34.3801 -34.3584 -34.3584 -34.3545
   -34.3492 -34.3492 -34.3462 -34.3462 -34.3397 -34.3397 -34.3357 -34.3309
   -34.3309 -34.3212 -34.3140 -34.3140 -34.3134 -34.3134 -34.3098 -34.3086
   -34.3086 -34.3086 -34.3086 -34.3045 -34.3045 -34.2722 -34.2722 -34.2673
   -34.2379 -34.2352 -34.2352 -34.2239 -34.2239 -34.2162 -34.1914 -34.1865
   -13.3876 -12.8247 -12.6989 -12.6989 -12.4666 -12.4666 -12.3609 -12.0968
   -11.8671 -11.8159 -11.8159 -11.7613 -11.7613 -11.7222 -11.7222 -11.6804
   -11.6133 -11.5976 -11.5976 -11.5743 -11.5743 -11.4706 -11.4706 -11.4261
   -11.4261 -11.3915 -11.3749 -11.3749 -11.3567 -11.3567 -11.2981 -11.2981
    -5.0480  -5.0480  -5.0428  -4.9016  -4.4861  -4.4861  -4.4516  -4.4516
    -4.4428  -4.4428  -4.3884  -4.3806  -4.3741  -4.3741  -4.3258  -4.3258
    -4.3213  -4.3213  -4.2277  -4.2277  -4.1059  -4.1059  -4.0541  -3.9734
    -3.9734  -3.3806  -3.3806  -3.3745  -3.2228  -3.2087  -3.1989  -3.1989
    -3.0857  -3.0857  -3.0523  -3.0523  -3.0318  -3.0318  -3.0064  -3.0064
    -2.9873  -2.9873  -2.9734  -2.7313  -2.7313  -2.6175  -2.6175  -2.5724
    -2.5485  -2.5485  -2.5090  -2.5090  -2.4897  -2.4686  -2.4686  -2.4565
    -2.4565  -2.0727  -2.0727  -2.0296  -2.0288  -2.0225  -2.0225  -1.9426
    -1.9181  -1.9181  -1.8280  -1.8280  -1.6266  -1.3702  -1.2996  -1.2703
    -1.2703  -1.1887  -1.1887  -1.1838  -1.1471  -1.1471  -1.0758  -1.0758
    -0.9893  -0.9893  -0.9380  -0.9117  -0.8143  -0.8032  -0.8032  -0.7040
    -0.6772  -0.6772  -0.5234  -0.5234  -0.5164  -0.5095  -0.5095  -0.3721
    -0.2326  -0.1506  -0.1506  -0.0226  -0.0064  -0.0064   0.0460   0.0460
     0.0828   0.0828   0.1318   0.1318   0.1689   0.2865   0.2865   0.6581

     occupation numbers 
     1.0000   1.0000   1.0000   1.0000   1.0000   1.0000   1.0000   1.0000
     1.0000   1.0000   1.0000   1.0000   1.0000   1.0000   1.0000   1.0000
     1.0000   1.0000   1.0000   1.0000   1.0000   1.0000   1.0000   1.0000
     1.0000   1.0000   1.0000   1.0000   1.0000   1.0000   1.0000   1.0000
     1.0000   1.0000   1.0000   1.0000   1.0000   1.0000   1.0000   1.0000
     1.0000   1.0000   1.0000   1.0000   1.0000   1.0000   1.0000   1.0000
     1.0000   1.0000   1.0000   1.0000   1.0000   1.0000   1.0000   1.0000
     1.0000   1.0000   1.0000   1.0000   1.0000   1.0000   1.0000   1.0000
     1.0000   1.0000   1.0000   1.0000   1.0000   1.0000   1.0000   1.0000
     1.0000   1.0000   1.0000   1.0000   1.0000   1.0000   1.0000   1.0000
     1.0000   1.0000   1.0000   1.0000   1.0000   1.0000   1.0000   1.0000
     1.0000   1.0000   1.0000   1.0000   1.0000   1.0000   1.0000   1.0000
     1.0000   1.0000   1.0000   1.0000   1.0000   1.0000   1.0000   1.0000
     1.0000   1.0000   1.0000   1.0000   1.0000   1.0000   1.0000   1.0000
     1.0000   1.0000   1.0000   1.0000   1.0000   1.0000   1.0000   1.0000
     1.0000   1.0000   1.0000   1.0000   1.0000   1.0000   1.0000   1.0000
     1.0000   1.0000   1.0000   1.0000   1.0000   1.0000   1.0000   1.0000
     1.0000   1.0000   1.0000   1.0000   1.0000   1.0000   1.0000   1.0000
     1.0000   1.0000   1.0000   1.0000   1.0000   1.0000   1.0000   1.0000
     1.0000   1.0000   1.0000   1.0000   1.0000   1.0000   1.0000   1.0000
     1.0000   1.0000   1.0000   1.0000   1.0000   1.0000   1.0000   1.0000
     1.0000   1.0000   1.0000   1.0000   1.0000   1.0000   1.0000   1.0000
     1.0000   1.0000   1.0000   1.0000   1.0000   1.0000   1.0000   1.0000
     1.0000   1.0000   1.0000   1.0000   1.0000   1.0000   1.0000   1.0000
     1.0000   1.0000   1.0000   1.0000   1.0000   1.0000   1.0000   1.0000
     1.0000   1.0000   1.0000   1.0000   1.0000   1.0000   1.0000   1.0000

          k = 0.0000 0.3849 0.0000 ( 98343 PWs)   bands (ev):

   -60.2521 -60.2455 -60.2398 -60.2398 -60.2308 -60.2308 -60.2274 -60.2241
   -60.2241 -60.2208 -60.2184 -60.2184 -60.2184 -60.2184 -60.2151 -60.2151
   -34.5327 -34.5327 -34.5223 -34.5008 -34.5008 -34.4841 -34.4841 -34.4575
   -34.4574 -34.4574 -34.4168 -34.4168 -34.3765 -34.3733 -34.3733 -34.3632
   -34.3517 -34.3517 -34.3335 -34.3335 -34.3305 -34.3305 -34.3269 -34.3202
   -34.3202 -34.3155 -34.3155 -34.3135 -34.3086 -34.3086 -34.3086 -34.3086
   -34.3020 -34.3019 -34.2893 -34.2892 -34.2824 -34.2824 -34.2772 -34.2631
   -34.2487 -34.2487 -34.2479 -34.2239 -34.2239 -34.2099 -34.2061 -34.1907
   -13.3120 -13.0245 -12.7603 -12.7603 -12.3067 -12.3067 -12.1240 -12.0658
   -11.9484 -11.9423 -11.9423 -11.8404 -11.8404 -11.7299 -11.6566 -11.6566
   -11.5927 -11.5927 -11.5869 -11.5793 -11.5792 -11.5039 -11.5039 -11.4352
   -11.3876 -11.3876 -11.3711 -11.3711 -11.3606 -11.3606 -11.2608 -11.2608
    -4.9465  -4.9465  -4.9273  -4.8156  -4.6254  -4.6254  -4.5739  -4.5739
    -4.5595  -4.5250  -4.4359  -4.4359  -4.3546  -4.3546  -4.3286  -4.3286
    -4.3007  -4.3007  -4.2038  -4.2038  -4.1337  -4.1337  -3.9337  -3.6859
    -3.6859  -3.4962  -3.3383  -3.3383  -3.3236  -3.2372  -3.2150  -3.2150
    -3.1970  -3.1970  -3.1635  -3.1635  -3.1499  -3.1499  -3.0668  -3.0668
    -3.0254  -3.0254  -2.7139  -2.6137  -2.6137  -2.5696  -2.5696  -2.5489
    -2.5489  -2.5337  -2.5337  -2.5100  -2.5100  -2.4295  -2.3602  -2.3602
    -2.2892  -2.2892  -2.2453  -2.1961  -2.1953  -1.9366  -1.9366  -1.8636
    -1.7028  -1.7028  -1.6016  -1.5793  -1.5793  -1.5688  -1.4104  -1.3636
    -1.3636  -1.2951  -1.2951  -1.1576  -1.1576  -1.1388  -1.1112  -1.1112
    -1.0421  -1.0420  -1.0304  -0.9526  -0.8546  -0.8546  -0.7381  -0.6826
    -0.6826  -0.6381  -0.6381  -0.5201  -0.4470  -0.4233  -0.3518  -0.3518
    -0.3049  -0.1897  -0.1897  -0.1394  -0.0991  -0.0991   0.1186   0.1186
     0.1414   0.1414   0.1473   0.1473   0.3766   0.4344   0.4344   0.6159

     occupation numbers 
     1.0000   1.0000   1.0000   1.0000   1.0000   1.0000   1.0000   1.0000
     1.0000   1.0000   1.0000   1.0000   1.0000   1.0000   1.0000   1.0000
     1.0000   1.0000   1.0000   1.0000   1.0000   1.0000   1.0000   1.0000
     1.0000   1.0000   1.0000   1.0000   1.0000   1.0000   1.0000   1.0000
     1.0000   1.0000   1.0000   1.0000   1.0000   1.0000   1.0000   1.0000
     1.0000   1.0000   1.0000   1.0000   1.0000   1.0000   1.0000   1.0000
     1.0000   1.0000   1.0000   1.0000   1.0000   1.0000   1.0000   1.0000
     1.0000   1.0000   1.0000   1.0000   1.0000   1.0000   1.0000   1.0000
     1.0000   1.0000   1.0000   1.0000   1.0000   1.0000   1.0000   1.0000
     1.0000   1.0000   1.0000   1.0000   1.0000   1.0000   1.0000   1.0000
     1.0000   1.0000   1.0000   1.0000   1.0000   1.0000   1.0000   1.0000
     1.0000   1.0000   1.0000   1.0000   1.0000   1.0000   1.0000   1.0000
     1.0000   1.0000   1.0000   1.0000   1.0000   1.0000   1.0000   1.0000
     1.0000   1.0000   1.0000   1.0000   1.0000   1.0000   1.0000   1.0000
     1.0000   1.0000   1.0000   1.0000   1.0000   1.0000   1.0000   1.0000
     1.0000   1.0000   1.0000   1.0000   1.0000   1.0000   1.0000   1.0000
     1.0000   1.0000   1.0000   1.0000   1.0000   1.0000   1.0000   1.0000
     1.0000   1.0000   1.0000   1.0000   1.0000   1.0000   1.0000   1.0000
     1.0000   1.0000   1.0000   1.0000   1.0000   1.0000   1.0000   1.0000
     1.0000   1.0000   1.0000   1.0000   1.0000   1.0000   1.0000   1.0000
     1.0000   1.0000   1.0000   1.0000   1.0000   1.0000   1.0000   1.0000
     1.0000   1.0000   1.0000   1.0000   1.0000   1.0000   1.0000   1.0000
     1.0000   1.0000   1.0000   1.0000   1.0000   1.0000   1.0000   1.0000
     1.0000   1.0000   1.0000   1.0000   1.0000   1.0000   1.0000   1.0000
     1.0000   1.0000   1.0000   1.0000   1.0000   1.0000   1.0000   1.0000
     1.0000   1.0000   1.0000   1.0000   1.0000   1.0000   1.0000   1.0000

          k = 0.0000-0.5774 0.0000 ( 98234 PWs)   bands (ev):

   -60.2493 -60.2492 -60.2402 -60.2402 -60.2275 -60.2275 -60.2274 -60.2274
   -60.2237 -60.2237 -60.2184 -60.2184 -60.2184 -60.2184 -60.2146 -60.2146
   -34.5180 -34.5180 -34.5180 -34.5179 -34.4943 -34.4942 -34.4839 -34.4839
   -34.4390 -34.4390 -34.4390 -34.4390 -34.3788 -34.3788 -34.3708 -34.3707
   -34.3526 -34.3526 -34.3269 -34.3269 -34.3269 -34.3269 -34.3246 -34.3246
   -34.3193 -34.3193 -34.3086 -34.3086 -34.3086 -34.3086 -34.3011 -34.3011
   -34.2978 -34.2977 -34.2977 -34.2977 -34.2671 -34.2671 -34.2671 -34.2671
   -34.2566 -34.2565 -34.2392 -34.2392 -34.2244 -34.2244 -34.1974 -34.1974
   -13.1893 -13.1892 -12.7811 -12.7811 -12.1283 -12.1283 -12.1283 -12.1283
   -12.0157 -12.0156 -11.9069 -11.9069 -11.8486 -11.8486 -11.5861 -11.5860
   -11.5860 -11.5860 -11.5825 -11.5825 -11.5825 -11.5825 -11.5026 -11.5026
   -11.3659 -11.3658 -11.3658 -11.3658 -11.3589 -11.3589 -11.2478 -11.2478
    -4.7952  -4.7952  -4.7952  -4.7952  -4.7560  -4.7560  -4.6833  -4.6832
    -4.6188  -4.6188  -4.3972  -4.3972  -4.3972  -4.3972  -4.3318  -4.3318
    -4.2633  -4.2633  -4.1697  -4.1697  -4.1697  -4.1697  -3.7432  -3.7431
    -3.4208  -3.4208  -3.4208  -3.4208  -3.2683  -3.2682  -3.2670  -3.2670
    -3.2670  -3.2670  -3.2258  -3.2258  -3.1468  -3.1468  -3.1468  -3.1468
    -3.0015  -3.0015  -2.5634  -2.5634  -2.5185  -2.5184  -2.5184  -2.5184
    -2.5082  -2.5082  -2.5082  -2.5082  -2.4848  -2.4848  -2.4377  -2.4377
    -2.3308  -2.3308  -2.3173  -2.3173  -2.0123  -2.0123  -1.9202  -1.9202
    -1.7367  -1.7367  -1.3989  -1.3989  -1.3559  -1.3559  -1.2920  -1.2920
    -1.2920  -1.2920  -1.2732  -1.2732  -1.2732  -1.2732  -1.2047  -1.2046
    -1.1053  -1.1052  -1.1052  -1.1052  -1.0619  -1.0619  -0.6277  -0.6277
    -0.6277  -0.6277  -0.5707  -0.5707  -0.4198  -0.4198  -0.2764  -0.2764
    -0.2589  -0.2589  -0.1625  -0.1625  -0.1625  -0.1625   0.1447   0.1447
     0.1572   0.1572   0.1572   0.1572   0.4974   0.4974   0.5273   0.5273

     occupation numbers 
     1.0000   1.0000   1.0000   1.0000   1.0000   1.0000   1.0000   1.0000
     1.0000   1.0000   1.0000   1.0000   1.0000   1.0000   1.0000   1.0000
     1.0000   1.0000   1.0000   1.0000   1.0000   1.0000   1.0000   1.0000
     1.0000   1.0000   1.0000   1.0000   1.0000   1.0000   1.0000   1.0000
     1.0000   1.0000   1.0000   1.0000   1.0000   1.0000   1.0000   1.0000
     1.0000   1.0000   1.0000   1.0000   1.0000   1.0000   1.0000   1.0000
     1.0000   1.0000   1.0000   1.0000   1.0000   1.0000   1.0000   1.0000
     1.0000   1.0000   1.0000   1.0000   1.0000   1.0000   1.0000   1.0000
     1.0000   1.0000   1.0000   1.0000   1.0000   1.0000   1.0000   1.0000
     1.0000   1.0000   1.0000   1.0000   1.0000   1.0000   1.0000   1.0000
     1.0000   1.0000   1.0000   1.0000   1.0000   1.0000   1.0000   1.0000
     1.0000   1.0000   1.0000   1.0000   1.0000   1.0000   1.0000   1.0000
     1.0000   1.0000   1.0000   1.0000   1.0000   1.0000   1.0000   1.0000
     1.0000   1.0000   1.0000   1.0000   1.0000   1.0000   1.0000   1.0000
     1.0000   1.0000   1.0000   1.0000   1.0000   1.0000   1.0000   1.0000
     1.0000   1.0000   1.0000   1.0000   1.0000   1.0000   1.0000   1.0000
     1.0000   1.0000   1.0000   1.0000   1.0000   1.0000   1.0000   1.0000
     1.0000   1.0000   1.0000   1.0000   1.0000   1.0000   1.0000   1.0000
     1.0000   1.0000   1.0000   1.0000   1.0000   1.0000   1.0000   1.0000
     1.0000   1.0000   1.0000   1.0000   1.0000   1.0000   1.0000   1.0000
     1.0000   1.0000   1.0000   1.0000   1.0000   1.0000   1.0000   1.0000
     1.0000   1.0000   1.0000   1.0000   1.0000   1.0000   1.0000   1.0000
     1.0000   1.0000   1.0000   1.0000   1.0000   1.0000   1.0000   1.0000
     1.0000   1.0000   1.0000   1.0000   1.0000   1.0000   1.0000   1.0000
     1.0000   1.0000   1.0000   1.0000   1.0000   1.0000   1.0000   1.0000
     1.0000   1.0000   1.0000   1.0000   1.0000   1.0000   1.0000   1.0000

          k = 0.1667 0.2887 0.0000 ( 98339 PWs)   bands (ev):

   -60.2527 -60.2430 -60.2430 -60.2353 -60.2353 -60.2293 -60.2293 -60.2243
   -60.2209 -60.2209 -60.2196 -60.2196 -60.2178 -60.2165 -60.2165 -60.2149
   -34.5382 -34.5308 -34.5308 -34.4957 -34.4957 -34.4821 -34.4821 -34.4760
   -34.4516 -34.4367 -34.4367 -34.3835 -34.3777 -34.3738 -34.3738 -34.3582
   -34.3582 -34.3438 -34.3438 -34.3426 -34.3426 -34.3306 -34.3306 -34.3205
   -34.3137 -34.3136 -34.3110 -34.3110 -34.3074 -34.3049 -34.3048 -34.3040
   -34.3040 -34.3016 -34.3013 -34.3013 -34.2932 -34.2840 -34.2693 -34.2693
   -34.2461 -34.2460 -34.2363 -34.2363 -34.2129 -34.2129 -34.2037 -34.1894
   -13.3370 -12.9116 -12.9116 -12.5399 -12.5399 -12.2282 -12.2282 -12.0761
   -11.9526 -11.9023 -11.9023 -11.7508 -11.7508 -11.7488 -11.7488 -11.6538
   -11.6538 -11.6271 -11.6271 -11.5397 -11.5067 -11.4773 -11.4772 -11.4245
   -11.4244 -11.4047 -11.4047 -11.3789 -11.3561 -11.3055 -11.3055 -11.2547
    -4.9824  -4.9705  -4.9705  -4.8438  -4.5994  -4.5424  -4.5424  -4.4954
    -4.4954  -4.4559  -4.4559  -4.4318  -4.4318  -4.4079  -4.4079  -4.3930
    -4.2788  -4.2788  -4.2154  -4.1782  -4.0223  -4.0223  -3.9797  -3.9797
    -3.6664  -3.3610  -3.3595  -3.3595  -3.3416  -3.3416  -3.2220  -3.2220
    -3.1638  -3.1638  -3.1412  -3.1412  -3.0844  -3.0844  -3.0740  -3.0314
    -2.8862  -2.8862  -2.8679  -2.8679  -2.7532  -2.6460  -2.5843  -2.5843
    -2.5156  -2.4769  -2.4769  -2.4670  -2.4670  -2.4102  -2.4102  -2.3411
    -2.1857  -2.1857  -2.1417  -2.1417  -2.1414  -2.1363  -2.1363  -1.8900
    -1.6826  -1.6723  -1.6722  -1.6091  -1.6091  -1.5154  -1.4662  -1.4662
    -1.3097  -1.2166  -1.2166  -1.1842  -1.1554  -1.1554  -1.1525  -1.1525
    -1.0010  -0.9050  -0.9050  -0.8698  -0.8698  -0.8346  -0.8343  -0.8343
    -0.6336  -0.5589  -0.5589  -0.5564  -0.4762  -0.4762  -0.4071  -0.4071
    -0.2555  -0.2554  -0.1030  -0.0733  -0.0733  -0.0017  -0.0017   0.0086
     0.0086   0.1865   0.2640   0.2640   0.2830   0.2830   0.4518   0.6310

     occupation numbers 
     1.0000   1.0000   1.0000   1.0000   1.0000   1.0000   1.0000   1.0000
     1.0000   1.0000   1.0000   1.0000   1.0000   1.0000   1.0000   1.0000
     1.0000   1.0000   1.0000   1.0000   1.0000   1.0000   1.0000   1.0000
     1.0000   1.0000   1.0000   1.0000   1.0000   1.0000   1.0000   1.0000
     1.0000   1.0000   1.0000   1.0000   1.0000   1.0000   1.0000   1.0000
     1.0000   1.0000   1.0000   1.0000   1.0000   1.0000   1.0000   1.0000
     1.0000   1.0000   1.0000   1.0000   1.0000   1.0000   1.0000   1.0000
     1.0000   1.0000   1.0000   1.0000   1.0000   1.0000   1.0000   1.0000
     1.0000   1.0000   1.0000   1.0000   1.0000   1.0000   1.0000   1.0000
     1.0000   1.0000   1.0000   1.0000   1.0000   1.0000   1.0000   1.0000
     1.0000   1.0000   1.0000   1.0000   1.0000   1.0000   1.0000   1.0000
     1.0000   1.0000   1.0000   1.0000   1.0000   1.0000   1.0000   1.0000
     1.0000   1.0000   1.0000   1.0000   1.0000   1.0000   1.0000   1.0000
     1.0000   1.0000   1.0000   1.0000   1.0000   1.0000   1.0000   1.0000
     1.0000   1.0000   1.0000   1.0000   1.0000   1.0000   1.0000   1.0000
     1.0000   1.0000   1.0000   1.0000   1.0000   1.0000   1.0000   1.0000
     1.0000   1.0000   1.0000   1.0000   1.0000   1.0000   1.0000   1.0000
     1.0000   1.0000   1.0000   1.0000   1.0000   1.0000   1.0000   1.0000
     1.0000   1.0000   1.0000   1.0000   1.0000   1.0000   1.0000   1.0000
     1.0000   1.0000   1.0000   1.0000   1.0000   1.0000   1.0000   1.0000
     1.0000   1.0000   1.0000   1.0000   1.0000   1.0000   1.0000   1.0000
     1.0000   1.0000   1.0000   1.0000   1.0000   1.0000   1.0000   1.0000
     1.0000   1.0000   1.0000   1.0000   1.0000   1.0000   1.0000   1.0000
     1.0000   1.0000   1.0000   1.0000   1.0000   1.0000   1.0000   1.0000
     1.0000   1.0000   1.0000   1.0000   1.0000   1.0000   1.0000   1.0000
     1.0000   1.0000   1.0000   1.0000   1.0000   1.0000   1.0000   1.0000

          k = 0.1667 0.4811 0.0000 ( 98346 PWs)   bands (ev):

   -60.2504 -60.2471 -60.2440 -60.2360 -60.2317 -60.2279 -60.2265 -60.2253
   -60.2237 -60.2219 -60.2206 -60.2201 -60.2173 -60.2168 -60.2155 -60.2142
   -34.5277 -34.5165 -34.5125 -34.5082 -34.5006 -34.4990 -34.4762 -34.4721
   -34.4681 -34.4566 -34.4281 -34.4017 -34.4006 -34.3730 -34.3664 -34.3627
   -34.3602 -34.3507 -34.3441 -34.3354 -34.3278 -34.3250 -34.3227 -34.3225
   -34.3192 -34.3158 -34.3130 -34.3121 -34.3063 -34.3055 -34.3029 -34.3016
   -34.3001 -34.2903 -34.2899 -34.2799 -34.2777 -34.2724 -34.2637 -34.2607
   -34.2602 -34.2558 -34.2529 -34.2383 -34.2274 -34.2123 -34.2031 -34.1951
   -13.2378 -13.0940 -12.9560 -12.5774 -12.3554 -12.1555 -12.0755 -12.0355
   -12.0002 -11.9767 -11.9202 -11.9121 -11.8019 -11.7653 -11.7250 -11.6923
   -11.6747 -11.5916 -11.5643 -11.5375 -11.5116 -11.4954 -11.4908 -11.4609
   -11.4208 -11.4144 -11.4133 -11.3367 -11.3308 -11.3190 -11.2782 -11.2316
    -4.8521  -4.8443  -4.8280  -4.7342  -4.6889  -4.6815  -4.6764  -4.6440
    -4.5873  -4.5481  -4.5144  -4.5012  -4.4921  -4.4604  -4.3440  -4.3263
    -4.2797  -4.2624  -4.2538  -4.0629  -4.0033  -3.9901  -3.8614  -3.7348
    -3.6352  -3.5268  -3.3448  -3.3168  -3.2830  -3.2814  -3.2559  -3.2463
    -3.2370  -3.2282  -3.1940  -3.1934  -3.1731  -3.1434  -3.1381  -3.1145
    -3.0740  -2.8272  -2.8042  -2.7417  -2.6019  -2.6014  -2.5355  -2.5338
    -2.5050  -2.4913  -2.4854  -2.4344  -2.4125  -2.4086  -2.3895  -2.3446
    -2.3156  -2.2848  -2.2818  -2.2516  -2.1532  -2.0969  -1.7956  -1.7883
    -1.7030  -1.6786  -1.6437  -1.5239  -1.4387  -1.4242  -1.3810  -1.3171
    -1.3048  -1.3013  -1.2668  -1.2581  -1.2508  -1.1769  -1.1681  -1.1670
    -1.0806  -1.0800  -1.0457  -0.9756  -0.9724  -0.9097  -0.8086  -0.8071
    -0.7671  -0.6502  -0.5117  -0.4594  -0.4212  -0.3662  -0.3333  -0.2967
    -0.2351  -0.1886  -0.1523  -0.1463  -0.1282  -0.0926  -0.0296   0.0272
     0.0296   0.2450   0.2722   0.3149   0.3882   0.4453   0.5656   0.5690

     occupation numbers 
     1.0000   1.0000   1.0000   1.0000   1.0000   1.0000   1.0000   1.0000
     1.0000   1.0000   1.0000   1.0000   1.0000   1.0000   1.0000   1.0000
     1.0000   1.0000   1.0000   1.0000   1.0000   1.0000   1.0000   1.0000
     1.0000   1.0000   1.0000   1.0000   1.0000   1.0000   1.0000   1.0000
     1.0000   1.0000   1.0000   1.0000   1.0000   1.0000   1.0000   1.0000
     1.0000   1.0000   1.0000   1.0000   1.0000   1.0000   1.0000   1.0000
     1.0000   1.0000   1.0000   1.0000   1.0000   1.0000   1.0000   1.0000
     1.0000   1.0000   1.0000   1.0000   1.0000   1.0000   1.0000   1.0000
     1.0000   1.0000   1.0000   1.0000   1.0000   1.0000   1.0000   1.0000
     1.0000   1.0000   1.0000   1.0000   1.0000   1.0000   1.0000   1.0000
     1.0000   1.0000   1.0000   1.0000   1.0000   1.0000   1.0000   1.0000
     1.0000   1.0000   1.0000   1.0000   1.0000   1.0000   1.0000   1.0000
     1.0000   1.0000   1.0000   1.0000   1.0000   1.0000   1.0000   1.0000
     1.0000   1.0000   1.0000   1.0000   1.0000   1.0000   1.0000   1.0000
     1.0000   1.0000   1.0000   1.0000   1.0000   1.0000   1.0000   1.0000
     1.0000   1.0000   1.0000   1.0000   1.0000   1.0000   1.0000   1.0000
     1.0000   1.0000   1.0000   1.0000   1.0000   1.0000   1.0000   1.0000
     1.0000   1.0000   1.0000   1.0000   1.0000   1.0000   1.0000   1.0000
     1.0000   1.0000   1.0000   1.0000   1.0000   1.0000   1.0000   1.0000
     1.0000   1.0000   1.0000   1.0000   1.0000   1.0000   1.0000   1.0000
     1.0000   1.0000   1.0000   1.0000   1.0000   1.0000   1.0000   1.0000
     1.0000   1.0000   1.0000   1.0000   1.0000   1.0000   1.0000   1.0000
     1.0000   1.0000   1.0000   1.0000   1.0000   1.0000   1.0000   1.0000
     1.0000   1.0000   1.0000   1.0000   1.0000   1.0000   1.0000   1.0000
     1.0000   1.0000   1.0000   1.0000   1.0000   1.0000   1.0000   1.0000
     1.0000   1.0000   1.0000   1.0000   1.0000   1.0000   1.0000   1.0000

          k = 0.3333 0.5774 0.0000 ( 98352 PWs)   bands (ev):

   -60.2476 -60.2476 -60.2476 -60.2320 -60.2320 -60.2320 -60.2229 -60.2229
   -60.2229 -60.2229 -60.2229 -60.2229 -60.2163 -60.2163 -60.2163 -60.2139
   -34.5165 -34.5165 -34.5165 -34.4905 -34.4905 -34.4905 -34.4905 -34.4905
   -34.4905 -34.4572 -34.4153 -34.3959 -34.3959 -34.3959 -34.3675 -34.3674
   -34.3674 -34.3360 -34.3360 -34.3360 -34.3252 -34.3252 -34.3252 -34.3178
   -34.3178 -34.3177 -34.3177 -34.3177 -34.3177 -34.3044 -34.3044 -34.3044
   -34.2995 -34.2701 -34.2701 -34.2701 -34.2701 -34.2701 -34.2701 -34.2549
   -34.2549 -34.2549 -34.2547 -34.2547 -34.2547 -34.2025 -34.2025 -34.2025
   -13.1175 -13.1175 -13.1175 -12.3719 -12.3719 -12.3719 -11.9863 -11.9863
   -11.9862 -11.8642 -11.8642 -11.8641 -11.8641 -11.8641 -11.8641 -11.6808
   -11.6808 -11.6807 -11.4811 -11.4811 -11.4811 -11.4811 -11.4811 -11.4811
   -11.4553 -11.4553 -11.4553 -11.3114 -11.3046 -11.3046 -11.3045 -11.2214
    -4.7186  -4.6934  -4.6934  -4.6934  -4.6918  -4.6917  -4.6917  -4.6917
    -4.6917  -4.6917  -4.6090  -4.6089  -4.6089  -4.3917  -4.3917  -4.3917
    -4.2519  -4.2519  -4.2519  -3.9072  -3.7961  -3.7961  -3.7961  -3.7961
    -3.7961  -3.7961  -3.3925  -3.2803  -3.2803  -3.2803  -3.2212  -3.2212
    -3.2212  -3.2212  -3.2212  -3.2211  -3.1631  -3.1631  -3.1631  -3.0011
    -3.0011  -3.0011  -2.8969  -2.5606  -2.5606  -2.5606  -2.5133  -2.5133
    -2.5133  -2.4650  -2.4650  -2.4650  -2.4538  -2.4538  -2.4538  -2.4537
    -2.4537  -2.4537  -2.2010  -2.0291  -2.0291  -2.0291  -1.7003  -1.7003
    -1.7003  -1.6714  -1.6714  -1.6714  -1.4816  -1.4038  -1.4038  -1.4038
    -1.3245  -1.3245  -1.3245  -1.2136  -1.2136  -1.2135  -0.9815  -0.9815
    -0.9815  -0.9815  -0.9815  -0.9815  -0.9600  -0.9600  -0.9600  -0.9600
    -0.9600  -0.9599  -0.3874  -0.3874  -0.3874  -0.3264  -0.3264  -0.3264
    -0.1315  -0.1315  -0.1315  -0.0978  -0.0978  -0.0978  -0.0978  -0.0978
    -0.0978   0.3240   0.3240   0.3240   0.4682   0.4682   0.4682   0.6263

     occupation numbers 
     1.0000   1.0000   1.0000   1.0000   1.0000   1.0000   1.0000   1.0000
     1.0000   1.0000   1.0000   1.0000   1.0000   1.0000   1.0000   1.0000
     1.0000   1.0000   1.0000   1.0000   1.0000   1.0000   1.0000   1.0000
     1.0000   1.0000   1.0000   1.0000   1.0000   1.0000   1.0000   1.0000
     1.0000   1.0000   1.0000   1.0000   1.0000   1.0000   1.0000   1.0000
     1.0000   1.0000   1.0000   1.0000   1.0000   1.0000   1.0000   1.0000
     1.0000   1.0000   1.0000   1.0000   1.0000   1.0000   1.0000   1.0000
     1.0000   1.0000   1.0000   1.0000   1.0000   1.0000   1.0000   1.0000
     1.0000   1.0000   1.0000   1.0000   1.0000   1.0000   1.0000   1.0000
     1.0000   1.0000   1.0000   1.0000   1.0000   1.0000   1.0000   1.0000
     1.0000   1.0000   1.0000   1.0000   1.0000   1.0000   1.0000   1.0000
     1.0000   1.0000   1.0000   1.0000   1.0000   1.0000   1.0000   1.0000
     1.0000   1.0000   1.0000   1.0000   1.0000   1.0000   1.0000   1.0000
     1.0000   1.0000   1.0000   1.0000   1.0000   1.0000   1.0000   1.0000
     1.0000   1.0000   1.0000   1.0000   1.0000   1.0000   1.0000   1.0000
     1.0000   1.0000   1.0000   1.0000   1.0000   1.0000   1.0000   1.0000
     1.0000   1.0000   1.0000   1.0000   1.0000   1.0000   1.0000   1.0000
     1.0000   1.0000   1.0000   1.0000   1.0000   1.0000   1.0000   1.0000
     1.0000   1.0000   1.0000   1.0000   1.0000   1.0000   1.0000   1.0000
     1.0000   1.0000   1.0000   1.0000   1.0000   1.0000   1.0000   1.0000
     1.0000   1.0000   1.0000   1.0000   1.0000   1.0000   1.0000   1.0000
     1.0000   1.0000   1.0000   1.0000   1.0000   1.0000   1.0000   1.0000
     1.0000   1.0000   1.0000   1.0000   1.0000   1.0000   1.0000   1.0000
     1.0000   1.0000   1.0000   1.0000   1.0000   1.0000   1.0000   1.0000
     1.0000   1.0000   1.0000   1.0000   1.0000   1.0000   1.0000   1.0000
     1.0000   1.0000   1.0000   1.0000   1.0000   1.0000   1.0000   1.0000

     highest occupied level (ev):     0.6701

!    total energy              =   -3003.72359049 Ry
     estimated scf accuracy    <          2.1E-09 Ry

     The total energy is the sum of the following terms:
     one-electron contribution =  -11354.65980528 Ry
     hartree contribution      =    5708.27539679 Ry
     xc contribution           =    -580.21272270 Ry
     ewald contribution        =    3222.87354070 Ry

     convergence has been achieved in  23 iterations

     negative rho (up, down):  2.808E-03 0.000E+00

     Forces acting on atoms (cartesian axes, Ry/au):

     atom    1 type  1   force =    -0.00000060   -0.00000034    0.00000020
     atom    2 type  1   force =     0.00000000   -0.00000458    0.00000027
     atom    3 type  1   force =    -0.00000335   -0.00000193    0.00000032
     atom    4 type  1   force =    -0.00000396    0.00000229    0.00000027
     atom    5 type  1   force =     0.00000028    0.00000256    0.00000028
     atom    6 type  1   force =     0.00000236   -0.00000103    0.00000028
     atom    7 type  1   force =     0.00000335   -0.00000193    0.00000032
     atom    8 type  1   force =     0.00000000    0.00000387    0.00000032
     atom    9 type  1   force =    -0.00000028    0.00000256    0.00000028
     atom   10 type  1   force =     0.00000000    0.00000000    0.00000028
     atom   11 type  1   force =     0.00000207   -0.00000152    0.00000028
     atom   12 type  1   force =     0.00000396    0.00000229    0.00000027
     atom   13 type  1   force =     0.00000060   -0.00000034    0.00000020
     atom   14 type  1   force =    -0.00000236   -0.00000103    0.00000028
     atom   15 type  1   force =    -0.00000207   -0.00000152    0.00000028
     atom   16 type  1   force =     0.00000000    0.00000069    0.00000020
     atom   17 type  2   force =     0.00000000   -0.00000079   -0.00044799
     atom   18 type  2   force =    -0.00000102   -0.00000137   -0.00044702
     atom   19 type  2   force =    -0.00000170   -0.00000020   -0.00044702
     atom   20 type  2   force =    -0.00000069    0.00000040   -0.00044799
     atom   21 type  2   force =     0.00000016    0.00000009   -0.00044829
     atom   22 type  2   force =     0.00000102   -0.00000137   -0.00044702
     atom   23 type  2   force =     0.00000000    0.00000000   -0.00044567
     atom   24 type  2   force =    -0.00000067    0.00000157   -0.00044702
     atom   25 type  2   force =    -0.00000000    0.00000050   -0.00044824
     atom   26 type  2   force =     0.00000044   -0.00000025   -0.00044824
     atom   27 type  2   force =     0.00000170   -0.00000020   -0.00044702
     atom   28 type  2   force =     0.00000067    0.00000157   -0.00044702
     atom   29 type  2   force =    -0.00000016    0.00000009   -0.00044829
     atom   30 type  2   force =    -0.00000044   -0.00000025   -0.00044824
     atom   31 type  2   force =     0.00000000   -0.00000019   -0.00044829
     atom   32 type  2   force =     0.00000069    0.00000040   -0.00044799
     atom   33 type  2   force =     0.00000000   -0.00000095    0.00044779
     atom   34 type  2   force =    -0.00000115   -0.00000148    0.00044669
     atom   35 type  2   force =    -0.00000185   -0.00000025    0.00044669
     atom   36 type  2   force =    -0.00000083    0.00000048    0.00044779
     atom   37 type  2   force =     0.00000016    0.00000009    0.00044807
     atom   38 type  2   force =     0.00000115   -0.00000148    0.00044669
     atom   39 type  2   force =     0.00000000    0.00000000    0.00044525
     atom   40 type  2   force =    -0.00000071    0.00000173    0.00044669
     atom   41 type  2   force =     0.00000000    0.00000058    0.00044802
     atom   42 type  2   force =     0.00000050   -0.00000029    0.00044802
     atom   43 type  2   force =     0.00000185   -0.00000025    0.00044669
     atom   44 type  2   force =     0.00000071    0.00000173    0.00044669
     atom   45 type  2   force =    -0.00000016    0.00000009    0.00044807
     atom   46 type  2   force =    -0.00000050   -0.00000029    0.00044802
     atom   47 type  2   force =     0.00000000   -0.00000019    0.00044807
     atom   48 type  2   force =     0.00000083    0.00000048    0.00044779
     The non-local contrib.  to forces
     atom    1 type  1   force =    -0.00000184   -0.00000106   -0.00000718
     atom    2 type  1   force =     0.00000000   -0.00000292   -0.00000703
     atom    3 type  1   force =    -0.00000060   -0.00000035   -0.00000705
     atom    4 type  1   force =    -0.00000253    0.00000146   -0.00000703
     atom    5 type  1   force =    -0.00000216    0.00000070   -0.00000710
     atom    6 type  1   force =    -0.00000047   -0.00000222   -0.00000710
     atom    7 type  1   force =     0.00000060   -0.00000035   -0.00000705
     atom    8 type  1   force =    -0.00000000    0.00000069   -0.00000705
     atom    9 type  1   force =     0.00000216    0.00000070   -0.00000710
     atom   10 type  1   force =     0.00000000   -0.00000000   -0.00000707
     atom   11 type  1   force =     0.00000168    0.00000152   -0.00000710
     atom   12 type  1   force =     0.00000253    0.00000146   -0.00000703
     atom   13 type  1   force =     0.00000184   -0.00000106   -0.00000718
     atom   14 type  1   force =     0.00000047   -0.00000222   -0.00000710
     atom   15 type  1   force =    -0.00000168    0.00000152   -0.00000710
     atom   16 type  1   force =     0.00000000    0.00000212   -0.00000718
     atom   17 type  2   force =     0.00000000    0.00000012   -0.27991788
     atom   18 type  2   force =     0.00000053    0.00000042   -0.27991850
     atom   19 type  2   force =     0.00000063    0.00000025   -0.27991850
     atom   20 type  2   force =     0.00000011   -0.00000006   -0.27991788
     atom   21 type  2   force =    -0.00000074   -0.00000043   -0.27991738
     atom   22 type  2   force =    -0.00000053    0.00000042   -0.27991850
     atom   23 type  2   force =     0.00000000    0.00000000   -0.27991877
     atom   24 type  2   force =     0.00000009   -0.00000067   -0.27991850
     atom   25 type  2   force =     0.00000000   -0.00000148   -0.27991712
     atom   26 type  2   force =    -0.00000128    0.00000074   -0.27991712
     atom   27 type  2   force =    -0.00000063    0.00000025   -0.27991850
     atom   28 type  2   force =    -0.00000009   -0.00000067   -0.27991850
     atom   29 type  2   force =     0.00000074   -0.00000043   -0.27991738
     atom   30 type  2   force =     0.00000128    0.00000074   -0.27991712
     atom   31 type  2   force =     0.00000000    0.00000085   -0.27991738
     atom   32 type  2   force =    -0.00000011   -0.00000006   -0.27991788
     atom   33 type  2   force =    -0.00000000    0.00000010    0.27991553
     atom   34 type  2   force =     0.00000050    0.00000043    0.27991621
     atom   35 type  2   force =     0.00000063    0.00000022    0.27991621
     atom   36 type  2   force =     0.00000009   -0.00000005    0.27991553
     atom   37 type  2   force =    -0.00000073   -0.00000042    0.27991505
     atom   38 type  2   force =    -0.00000050    0.00000043    0.27991621
     atom   39 type  2   force =     0.00000000    0.00000000    0.27991653
     atom   40 type  2   force =     0.00000012   -0.00000065    0.27991621
     atom   41 type  2   force =     0.00000000   -0.00000157    0.27991473
     atom   42 type  2   force =    -0.00000136    0.00000079    0.27991473
     atom   43 type  2   force =    -0.00000063    0.00000022    0.27991621
     atom   44 type  2   force =    -0.00000012   -0.00000065    0.27991621
     atom   45 type  2   force =     0.00000073   -0.00000042    0.27991505
     atom   46 type  2   force =     0.00000136    0.00000079    0.27991473
     atom   47 type  2   force =     0.00000000    0.00000084    0.27991505
     atom   48 type  2   force =    -0.00000009   -0.00000005    0.27991553
     The ionic contribution  to forces
     atom    1 type  1   force =    -0.00000705   -0.00001272   -0.00000696
     atom    2 type  1   force =    -0.00000152   -0.00005242   -0.00000769
     atom    3 type  1   force =    -0.00005987   -0.00004899   -0.00000674
     atom    4 type  1   force =    -0.00005795    0.00004789   -0.00000769
     atom    5 type  1   force =    -0.00001482    0.00001711   -0.00000676
     atom    6 type  1   force =     0.00001877   -0.00000564   -0.00000676
     atom    7 type  1   force =     0.00005585   -0.00004885   -0.00000674
     atom    8 type  1   force =    -0.00000069    0.00007827   -0.00000674
     atom    9 type  1   force =     0.00001169    0.00002779   -0.00000676
     atom   10 type  1   force =     0.00001574    0.00001118   -0.00000708
     atom   11 type  1   force =     0.00002012   -0.00003372   -0.00000676
     atom   12 type  1   force =     0.00004876    0.00005142   -0.00000769
     atom   13 type  1   force =     0.00000515   -0.00000656   -0.00000696
     atom   14 type  1   force =    -0.00002796   -0.00000533   -0.00000676
     atom   15 type  1   force =    -0.00002114   -0.00002935   -0.00000676
     atom   16 type  1   force =     0.00001492    0.00002549   -0.00000696
     atom   17 type  2   force =    -0.00000017   -0.00001294   32.46244116
     atom   18 type  2   force =    -0.00001266   -0.00001533   32.46244357
     atom   19 type  2   force =    -0.00002131   -0.00000742   32.46244859
     atom   20 type  2   force =    -0.00000688    0.00000852   32.46243758
     atom   21 type  2   force =    -0.00000521   -0.00000642   32.46243815
     atom   22 type  2   force =     0.00001118   -0.00001540   32.46244396
     atom   23 type  2   force =    -0.00000059   -0.00000599   32.46246380
     atom   24 type  2   force =    -0.00001119    0.00002120   32.46244523
     atom   25 type  2   force =     0.00000480    0.00000119   32.46243642
     atom   26 type  2   force =    -0.00000030    0.00000248   32.46243205
     atom   27 type  2   force =     0.00001883   -0.00000746   32.46244974
     atom   28 type  2   force =     0.00001042    0.00002287   32.46244530
     atom   29 type  2   force =     0.00000273   -0.00000486   32.46243734
     atom   30 type  2   force =    -0.00000037    0.00000029   32.46242738
     atom   31 type  2   force =     0.00000522   -0.00000097   32.46244276
     atom   32 type  2   force =     0.00000550    0.00001244   32.46244192
     atom   33 type  2   force =    -0.00000017   -0.00001293  -32.46243428
     atom   34 type  2   force =    -0.00001274   -0.00001526  -32.46243660
     atom   35 type  2   force =    -0.00002128   -0.00000752  -32.46244162
     atom   36 type  2   force =    -0.00000687    0.00000852  -32.46243070
     atom   37 type  2   force =    -0.00000514   -0.00000638  -32.46243108
     atom   38 type  2   force =     0.00001125   -0.00001533  -32.46243699
     atom   39 type  2   force =    -0.00000059   -0.00000599  -32.46245663
     atom   40 type  2   force =    -0.00001109    0.00002123  -32.46243826
     atom   41 type  2   force =     0.00000480    0.00000116  -32.46242943
     atom   42 type  2   force =    -0.00000032    0.00000249  -32.46242506
     atom   43 type  2   force =     0.00001880   -0.00000756  -32.46244278
     atom   44 type  2   force =     0.00001032    0.00002289  -32.46243833
     atom   45 type  2   force =     0.00000266   -0.00000482  -32.46243027
     atom   46 type  2   force =    -0.00000034    0.00000030  -32.46242039
     atom   47 type  2   force =     0.00000522   -0.00000105  -32.46243568
     atom   48 type  2   force =     0.00000549    0.00001244  -32.46243504
     The local contribution  to forces
     atom    1 type  1   force =     0.00004804    0.00001353    0.00001017
     atom    2 type  1   force =     0.00000000    0.00014619    0.00001118
     atom    3 type  1   force =     0.00012032    0.00002844    0.00001048
     atom    4 type  1   force =     0.00012528   -0.00001796    0.00001118
     atom    5 type  1   force =    -0.00003776   -0.00004148    0.00000979
     atom    6 type  1   force =    -0.00004249    0.00006213    0.00000979
     atom    7 type  1   force =    -0.00012032    0.00002844    0.00001048
     atom    8 type  1   force =    -0.00000000   -0.00008455    0.00001048
     atom    9 type  1   force =     0.00003776   -0.00004148    0.00000979
     atom   10 type  1   force =     0.00006898    0.00004136    0.00000972
     atom   11 type  1   force =    -0.00007372   -0.00003452    0.00000979
     atom   12 type  1   force =    -0.00012528   -0.00001796    0.00001118
     atom   13 type  1   force =    -0.00004804    0.00001353    0.00001017
     atom   14 type  1   force =     0.00004249    0.00006213    0.00000979
     atom   15 type  1   force =     0.00007372   -0.00003452    0.00000979
     atom   16 type  1   force =     0.00006898   -0.00004093    0.00001017
     atom   17 type  2   force =     0.00000000    0.00002628  -32.19733346
     atom   18 type  2   force =     0.00002060    0.00003171  -32.19735729
     atom   19 type  2   force =     0.00003833   -0.00000126  -32.19735729
     atom   20 type  2   force =     0.00002771   -0.00001385  -32.19733346
     atom   21 type  2   force =     0.00001181    0.00000533  -32.19733881
     atom   22 type  2   force =    -0.00002060    0.00003171  -32.19735729
     atom   23 type  2   force =     0.00000000   -0.00000291  -32.19738528
     atom   24 type  2   force =     0.00001773   -0.00003187  -32.19735729
     atom   25 type  2   force =     0.00000366   -0.00000747  -32.19733464
     atom   26 type  2   force =    -0.00000701    0.00000339  -32.19733464
     atom   27 type  2   force =    -0.00003833   -0.00000126  -32.19735729
     atom   28 type  2   force =    -0.00001773   -0.00003187  -32.19735729
     atom   29 type  2   force =    -0.00001181    0.00000533  -32.19733881
     atom   30 type  2   force =     0.00000701    0.00000339  -32.19733464
     atom   31 type  2   force =     0.00000366   -0.00001866  -32.19733881
     atom   32 type  2   force =    -0.00002771   -0.00001385  -32.19733346
     atom   33 type  2   force =     0.00000000    0.00002602   32.19732369
     atom   34 type  2   force =     0.00002038    0.00003138   32.19734708
     atom   35 type  2   force =     0.00003793   -0.00000128   32.19734708
     atom   36 type  2   force =     0.00002749   -0.00001372   32.19732369
     atom   37 type  2   force =     0.00001180    0.00000532   32.19732874
     atom   38 type  2   force =    -0.00002038    0.00003138   32.19734708
     atom   39 type  2   force =     0.00000000   -0.00000291   32.19737473
     atom   40 type  2   force =     0.00001755   -0.00003152   32.19734708
     atom   41 type  2   force =     0.00000366   -0.00000713   32.19732471
     atom   42 type  2   force =    -0.00000671    0.00000322   32.19732471
     atom   43 type  2   force =    -0.00003793   -0.00000128   32.19734708
     atom   44 type  2   force =    -0.00001755   -0.00003152   32.19734708
     atom   45 type  2   force =    -0.00001180    0.00000532   32.19732874
     atom   46 type  2   force =     0.00000671    0.00000322   32.19732471
     atom   47 type  2   force =     0.00000366   -0.00001865   32.19732874
     atom   48 type  2   force =    -0.00002749   -0.00001372   32.19732369
     The core correction contribution to forces
     atom    1 type  1   force =    -0.00000001    0.00000016    0.00000052
     atom    2 type  1   force =    -0.00000000   -0.00000007    0.00000051
     atom    3 type  1   force =    -0.00000028    0.00000031    0.00000051
     atom    4 type  1   force =    -0.00000004   -0.00000060    0.00000051
     atom    5 type  1   force =     0.00000079   -0.00000017    0.00000051
     atom    6 type  1   force =     0.00000011   -0.00000009    0.00000051
     atom    7 type  1   force =     0.00000028    0.00000031    0.00000051
     atom    8 type  1   force =     0.00000000   -0.00000031    0.00000051
     atom    9 type  1   force =    -0.00000079   -0.00000017    0.00000051
     atom   10 type  1   force =    -0.00000080   -0.00000048    0.00000051
     atom   11 type  1   force =     0.00000011    0.00000042    0.00000051
     atom   12 type  1   force =     0.00000004   -0.00000060    0.00000051
     atom   13 type  1   force =     0.00000001    0.00000016    0.00000052
     atom   14 type  1   force =    -0.00000011   -0.00000009    0.00000051
     atom   15 type  1   force =    -0.00000011    0.00000042    0.00000051
     atom   16 type  1   force =    -0.00000080   -0.00000016    0.00000052
     atom   17 type  2   force =    -0.00000000    0.00000039    0.01438166
     atom   18 type  2   force =    -0.00000019    0.00000008    0.01438168
     atom   19 type  2   force =    -0.00000010    0.00000017    0.01438168
     atom   20 type  2   force =    -0.00000023   -0.00000011    0.01438166
     atom   21 type  2   force =     0.00000019    0.00000028    0.01438161
     atom   22 type  2   force =     0.00000019    0.00000008    0.01438168
     atom   23 type  2   force =    -0.00000000    0.00000034    0.01438169
     atom   24 type  2   force =     0.00000010   -0.00000008    0.01438168
     atom   25 type  2   force =    -0.00000042    0.00000006    0.01438160
     atom   26 type  2   force =     0.00000011    0.00000001    0.01438160
     atom   27 type  2   force =     0.00000010    0.00000017    0.01438168
     atom   28 type  2   force =    -0.00000010   -0.00000008    0.01438168
     atom   29 type  2   force =    -0.00000019    0.00000028    0.01438161
     atom   30 type  2   force =    -0.00000011    0.00000001    0.01438160
     atom   31 type  2   force =    -0.00000042    0.00000036    0.01438161
     atom   32 type  2   force =     0.00000023   -0.00000011    0.01438166
     atom   33 type  2   force =     0.00000000    0.00000039   -0.01438105
     atom   34 type  2   force =    -0.00000019    0.00000007   -0.01438107
     atom   35 type  2   force =    -0.00000010    0.00000017   -0.01438107
     atom   36 type  2   force =    -0.00000023   -0.00000011   -0.01438105
     atom   37 type  2   force =     0.00000019    0.00000028   -0.01438100
     atom   38 type  2   force =     0.00000019    0.00000007   -0.01438107
     atom   39 type  2   force =    -0.00000000    0.00000034   -0.01438109
     atom   40 type  2   force =     0.00000009   -0.00000008   -0.01438107
     atom   41 type  2   force =    -0.00000042    0.00000006   -0.01438098
     atom   42 type  2   force =     0.00000012    0.00000001   -0.01438098
     atom   43 type  2   force =     0.00000010    0.00000017   -0.01438107
     atom   44 type  2   force =    -0.00000009   -0.00000008   -0.01438107
     atom   45 type  2   force =    -0.00000019    0.00000028   -0.01438100
     atom   46 type  2   force =    -0.00000012    0.00000001   -0.01438098
     atom   47 type  2   force =    -0.00000042    0.00000036   -0.01438100
     atom   48 type  2   force =     0.00000023   -0.00000011   -0.01438105
     The Hubbard contrib.    to forces
     atom    1 type  1   force =     0.00000000    0.00000000    0.00000000
     atom    2 type  1   force =     0.00000000    0.00000000    0.00000000
     atom    3 type  1   force =     0.00000000    0.00000000    0.00000000
     atom    4 type  1   force =     0.00000000    0.00000000    0.00000000
     atom    5 type  1   force =     0.00000000    0.00000000    0.00000000
     atom    6 type  1   force =     0.00000000    0.00000000    0.00000000
     atom    7 type  1   force =     0.00000000    0.00000000    0.00000000
     atom    8 type  1   force =     0.00000000    0.00000000    0.00000000
     atom    9 type  1   force =     0.00000000    0.00000000    0.00000000
     atom   10 type  1   force =     0.00000000    0.00000000    0.00000000
     atom   11 type  1   force =     0.00000000    0.00000000    0.00000000
     atom   12 type  1   force =     0.00000000    0.00000000    0.00000000
     atom   13 type  1   force =     0.00000000    0.00000000    0.00000000
     atom   14 type  1   force =     0.00000000    0.00000000    0.00000000
     atom   15 type  1   force =     0.00000000    0.00000000    0.00000000
     atom   16 type  1   force =     0.00000000    0.00000000    0.00000000
     atom   17 type  2   force =     0.00000000    0.00000000    0.00000000
     atom   18 type  2   force =     0.00000000    0.00000000    0.00000000
     atom   19 type  2   force =     0.00000000    0.00000000    0.00000000
     atom   20 type  2   force =     0.00000000    0.00000000    0.00000000
     atom   21 type  2   force =     0.00000000    0.00000000    0.00000000
     atom   22 type  2   force =     0.00000000    0.00000000    0.00000000
     atom   23 type  2   force =     0.00000000    0.00000000    0.00000000
     atom   24 type  2   force =     0.00000000    0.00000000    0.00000000
     atom   25 type  2   force =     0.00000000    0.00000000    0.00000000
     atom   26 type  2   force =     0.00000000    0.00000000    0.00000000
     atom   27 type  2   force =     0.00000000    0.00000000    0.00000000
     atom   28 type  2   force =     0.00000000    0.00000000    0.00000000
     atom   29 type  2   force =     0.00000000    0.00000000    0.00000000
     atom   30 type  2   force =     0.00000000    0.00000000    0.00000000
     atom   31 type  2   force =     0.00000000    0.00000000    0.00000000
     atom   32 type  2   force =     0.00000000    0.00000000    0.00000000
     atom   33 type  2   force =     0.00000000    0.00000000    0.00000000
     atom   34 type  2   force =     0.00000000    0.00000000    0.00000000
     atom   35 type  2   force =     0.00000000    0.00000000    0.00000000
     atom   36 type  2   force =     0.00000000    0.00000000    0.00000000
     atom   37 type  2   force =     0.00000000    0.00000000    0.00000000
     atom   38 type  2   force =     0.00000000    0.00000000    0.00000000
     atom   39 type  2   force =     0.00000000    0.00000000    0.00000000
     atom   40 type  2   force =     0.00000000    0.00000000    0.00000000
     atom   41 type  2   force =     0.00000000    0.00000000    0.00000000
     atom   42 type  2   force =     0.00000000    0.00000000    0.00000000
     atom   43 type  2   force =     0.00000000    0.00000000    0.00000000
     atom   44 type  2   force =     0.00000000    0.00000000    0.00000000
     atom   45 type  2   force =     0.00000000    0.00000000    0.00000000
     atom   46 type  2   force =     0.00000000    0.00000000    0.00000000
     atom   47 type  2   force =     0.00000000    0.00000000    0.00000000
     atom   48 type  2   force =     0.00000000    0.00000000    0.00000000
     The SCF correction term to forces
     atom    1 type  1   force =    -0.00002540   -0.00001466    0.00000169
     atom    2 type  1   force =    -0.00000000   -0.00006403    0.00000135
     atom    3 type  1   force =    -0.00002993   -0.00001728    0.00000118
     atom    4 type  1   force =    -0.00005545    0.00003201    0.00000135
     atom    5 type  1   force =    -0.00002175    0.00002753    0.00000188
     atom    6 type  1   force =     0.00001297   -0.00003260    0.00000188
     atom    7 type  1   force =     0.00002993   -0.00001728    0.00000118
     atom    8 type  1   force =     0.00000000    0.00003456    0.00000118
     atom    9 type  1   force =     0.00002175    0.00002753    0.00000188
     atom   10 type  1   force =     0.00000000    0.00000000    0.00000225
     atom   11 type  1   force =     0.00003472    0.00000507    0.00000188
     atom   12 type  1   force =     0.00005545    0.00003201    0.00000135
     atom   13 type  1   force =     0.00002540   -0.00001466    0.00000169
     atom   14 type  1   force =    -0.00001297   -0.00003260    0.00000188
     atom   15 type  1   force =    -0.00003472    0.00000507    0.00000188
     atom   16 type  1   force =     0.00000000    0.00002933    0.00000169
     atom   17 type  2   force =    -0.00000000   -0.00001894   -0.00002048
     atom   18 type  2   force =    -0.00000664   -0.00001760   -0.00000094
     atom   19 type  2   force =    -0.00001856    0.00000305   -0.00000094
     atom   20 type  2   force =    -0.00001640    0.00000947   -0.00002048
     atom   21 type  2   force =    -0.00000867   -0.00000501   -0.00001509
     atom   22 type  2   force =     0.00000664   -0.00001760   -0.00000094
     atom   23 type  2   force =    -0.00000000   -0.00000000    0.00001095
     atom   24 type  2   force =    -0.00001192    0.00001455   -0.00000094
     atom   25 type  2   force =     0.00000000    0.00000962   -0.00001198
     atom   26 type  2   force =     0.00000833   -0.00000481   -0.00001198
     atom   27 type  2   force =     0.00001856    0.00000305   -0.00000094
     atom   28 type  2   force =     0.00001192    0.00001455   -0.00000094
     atom   29 type  2   force =     0.00000867   -0.00000501   -0.00001509
     atom   30 type  2   force =    -0.00000833   -0.00000481   -0.00001198
     atom   31 type  2   force =     0.00000000    0.00001001   -0.00001509
     atom   32 type  2   force =     0.00001640    0.00000947   -0.00002048
     atom   33 type  2   force =    -0.00000000   -0.00001884    0.00002100
     atom   34 type  2   force =    -0.00000644   -0.00001747    0.00000161
     atom   35 type  2   force =    -0.00001835    0.00000316    0.00000161
     atom   36 type  2   force =    -0.00001631    0.00000942    0.00002100
     atom   37 type  2   force =    -0.00000875   -0.00000505    0.00001566
     atom   38 type  2   force =     0.00000644   -0.00001747    0.00000161
     atom   39 type  2   force =    -0.00000000   -0.00000000   -0.00001024
     atom   40 type  2   force =    -0.00001191    0.00001432    0.00000161
     atom   41 type  2   force =     0.00000000    0.00000946    0.00001257
     atom   42 type  2   force =     0.00000819   -0.00000473    0.00001257
     atom   43 type  2   force =     0.00001835    0.00000316    0.00000161
     atom   44 type  2   force =     0.00001191    0.00001432    0.00000161
     atom   45 type  2   force =     0.00000874   -0.00000505    0.00001566
     atom   46 type  2   force =    -0.00000819   -0.00000473    0.00001257
     atom   47 type  2   force =     0.00000000    0.00001010    0.00001566
     atom   48 type  2   force =     0.00001631    0.00000942    0.00002100

     Total force =     0.002531     Total SCF correction =     0.000196


     Computing stress (Cartesian axis) and pressure


     negative rho (up, down):  2.808E-03 0.000E+00
          total   stress  (Ry/bohr**3)                   (kbar)     P=       -1.92
  -0.00001780   0.00000000   0.00000000           -2.62        0.00        0.00
   0.00000000  -0.00001780  -0.00000000            0.00       -2.62       -0.00
   0.00000000  -0.00000000  -0.00000359            0.00       -0.00       -0.53

     kinetic stress (kbar)   4874.62      0.00      0.00
                                0.00   4874.62      0.00
                                0.00      0.00   4937.87

     local   stress (kbar)-114756.18     -0.00      0.00
                               -0.00-114756.18     -0.00
                                0.00     -0.00 111992.90

     nonloc. stress (kbar)   5137.88      0.00      0.00
                                0.00   5137.88      0.00
                                0.00      0.00   5152.90

     hartree stress (kbar)  56062.15      0.00     -0.00
                                0.00  56062.15      0.00
                               -0.00      0.00 -53304.05

     exc-cor stress (kbar)    367.16      0.00     -0.00
                                0.00    367.16      0.00
                               -0.00      0.00    366.18

     corecor stress (kbar)  -1910.16     -0.00      0.00
                               -0.00  -1910.16     -0.00
                                0.00     -0.00  -1912.20

     ewald   stress (kbar)  50221.92     -0.00     -0.00
                               -0.00  50221.92      0.00
                               -0.00      0.00 -67234.12

     hubbard stress (kbar)      0.00      0.00      0.00
                                0.00      0.00      0.00
                                0.00      0.00      0.00

     DFT-D   stress (kbar)      0.00      0.00      0.00
                                0.00      0.00      0.00
                                0.00      0.00      0.00

     XDM     stress (kbar)      0.00      0.00      0.00
                                0.00      0.00      0.00
                                0.00      0.00      0.00

     dft-nl  stress (kbar)      0.00      0.00      0.00
                                0.00      0.00      0.00
                                0.00      0.00      0.00

     TS-vdW  stress (kbar)      0.00      0.00      0.00
                                0.00      0.00      0.00
                                0.00      0.00      0.00

     MDB     stress (kbar)      0.00      0.00      0.00
                                0.00      0.00      0.00
                                0.00      0.00      0.00

     3D-RISM stress (kbar)      0.00      0.00      0.00
                                0.00      0.00      0.00
                                0.00      0.00      0.00


     BFGS Geometry Optimization
     Energy error            =      6.4E-06 Ry
     Gradient error          =      4.5E-04 Ry/Bohr

     number of scf cycles    =   1
     number of bfgs steps    =   0

     energy             new  =   -3003.7235904905 Ry

     new trust radius        =       0.0004482921 bohr
     new conv_thr            =       0.0000000100 Ry


ATOMIC_POSITIONS (angstrom)
Mo               1.5951571913        0.9209645331       11.1592500490
Mo               0.0000000000        3.6838575196       11.1592500759
Mo              -1.5951587437        6.4467535707       11.1592501216
Mo              -3.1903172821        9.2096487403       11.1592500759
Mo               4.7854736789        0.9209653945       11.1592500999
Mo               3.1903161811        3.6838585247       11.1592500999
Mo               1.5951587437        6.4467535707       11.1592501216
Mo               0.0000000000        9.2096488587       11.1592501216
Mo               7.9757893211        0.9209653945       11.1592500999
Mo               6.3806310000        3.6838590000       11.1592500955
Mo               4.7854745022        6.4467540808       11.1592500999
Mo               3.1903172821        9.2096487403       11.1592500759
Mo              11.1661058087        0.9209645331       11.1592500490
Mo               9.5709468189        3.6838585247       11.1592500999
Mo               7.9757884978        6.4467540808       11.1592500999
Mo               6.3806310000        9.2096489338       11.1592500490
S                0.0000000000        1.8419310490       12.7195968804
S               -1.5951580286        4.6048250559       12.7195960189
S               -3.1903150998        7.3677184472       12.7195960189
S               -4.7854730915       10.1306124755       12.7195968804
S                3.1903166374        1.8419303680       12.7195962533
S                1.5951580286        4.6048250559       12.7195960189
S                0.0000000000        7.3677190000       12.7195952158
S               -1.5951570712       10.1306124967       12.7195960189
S                6.3806310000        1.8419302156       12.7195959419
S                4.7854741867        4.6048238922       12.7195959419
S                3.1903150998        7.3677184472       12.7195960189
S                1.5951570712       10.1306124967       12.7195960189
S                9.5709463626        1.8419303680       12.7195962533
S                7.9757888133        4.6048238922       12.7195959419
S                6.3806310000        7.3677182640       12.7195962533
S                4.7854730915       10.1306124755       12.7195968804
S                0.0000000000        1.8419309525        9.5989110546
S               -1.5951581062        4.6048250014        9.5989118576
S               -3.1903151859        7.3677184074        9.5989118576
S               -4.7854731750       10.1306125237        9.5989110546
S                3.1903166405        1.8419303697        9.5989116902
S                1.5951581062        4.6048250014        9.5989118576
S                0.0000000000        7.3677190000        9.5989126461
S               -1.5951570797       10.1306125913        9.5989118576
S                6.3806310000        1.8419302542        9.5989119948
S                4.7854742201        4.6048238729        9.5989119948
S                3.1903151859        7.3677184074        9.5989118576
S                1.5951570797       10.1306125913        9.5989118576
S                9.5709463595        1.8419303697        9.5989116902
S                7.9757887799        4.6048238729        9.5989119948
S                6.3806310000        7.3677182605        9.5989116902
S                4.7854731750       10.1306125237        9.5989110546



     Writing config-only to output data dir /home/nihal/Desktop/Otptf/Trial_2.save/ :
     XML data file
     NEW-OLD atomic charge density approx. for the potential

     negative rho (up, down):  2.808E-03 0.000E+00

     total cpu time spent up to now is     2386.0 secs

     Self-consistent Calculation

     iteration #  1     ecut=    55.00 Ry     beta= 0.30
     Davidson diagonalization with overlap

---- Real-time Memory Report at c_bands before calling an iterative solver
          2415 MiB given to the printing process from OS
             0 MiB allocation reported by mallinfo(arena+hblkhd)
         13163 MiB available memory on the node where the printing process lives
------------------
     ethr =  1.00E-06,  avg # of iterations =  2.0

     Threshold (ethr) on eigenvalues was too large:
     Diagonalizing with lowered threshold

     Davidson diagonalization with overlap

---- Real-time Memory Report at c_bands before calling an iterative solver
          2415 MiB given to the printing process from OS
             0 MiB allocation reported by mallinfo(arena+hblkhd)
         13265 MiB available memory on the node where the printing process lives
------------------
     ethr =  4.66E-10,  avg # of iterations =  5.7

     negative rho (up, down):  2.808E-03 0.000E+00

     total cpu time spent up to now is     2587.6 secs

     total energy              =   -3003.72359558 Ry
     estimated scf accuracy    <       0.00000034 Ry

     iteration #  2     ecut=    55.00 Ry     beta= 0.30
     Davidson diagonalization with overlap

---- Real-time Memory Report at c_bands before calling an iterative solver
          2415 MiB given to the printing process from OS
             0 MiB allocation reported by mallinfo(arena+hblkhd)
         12822 MiB available memory on the node where the printing process lives
------------------
     ethr =  8.29E-11,  avg # of iterations =  5.6

     negative rho (up, down):  2.808E-03 0.000E+00

     total cpu time spent up to now is     2687.0 secs

     total energy              =   -3003.72359563 Ry
     estimated scf accuracy    <       0.00000030 Ry

     iteration #  3     ecut=    55.00 Ry     beta= 0.30
     Davidson diagonalization with overlap

---- Real-time Memory Report at c_bands before calling an iterative solver
          2415 MiB given to the printing process from OS
             0 MiB allocation reported by mallinfo(arena+hblkhd)
         12972 MiB available memory on the node where the printing process lives
------------------
     ethr =  7.14E-11,  avg # of iterations =  5.0

     negative rho (up, down):  2.808E-03 0.000E+00

     total cpu time spent up to now is     2765.2 secs

     total energy              =   -3003.72359566 Ry
     estimated scf accuracy    <       0.00000003 Ry

     iteration #  4     ecut=    55.00 Ry     beta= 0.30
     Davidson diagonalization with overlap

---- Real-time Memory Report at c_bands before calling an iterative solver
          2415 MiB given to the printing process from OS
             0 MiB allocation reported by mallinfo(arena+hblkhd)
         12999 MiB available memory on the node where the printing process lives
------------------
     ethr =  8.05E-12,  avg # of iterations =  4.7

     negative rho (up, down):  2.808E-03 0.000E+00

     total cpu time spent up to now is     2850.1 secs

     total energy              =   -3003.72359566 Ry
     estimated scf accuracy    <       0.00000003 Ry

     iteration #  5     ecut=    55.00 Ry     beta= 0.30
     Davidson diagonalization with overlap

---- Real-time Memory Report at c_bands before calling an iterative solver
          2415 MiB given to the printing process from OS
             0 MiB allocation reported by mallinfo(arena+hblkhd)
         13028 MiB available memory on the node where the printing process lives
------------------
     ethr =  6.13E-12,  avg # of iterations =  5.0

     negative rho (up, down):  2.808E-03 0.000E+00

     total cpu time spent up to now is     2934.9 secs

     total energy              =   -3003.72359567 Ry
     estimated scf accuracy    <       0.00000001 Ry

     iteration #  6     ecut=    55.00 Ry     beta= 0.30
     Davidson diagonalization with overlap

---- Real-time Memory Report at c_bands before calling an iterative solver
          2415 MiB given to the printing process from OS
             0 MiB allocation reported by mallinfo(arena+hblkhd)
         12659 MiB available memory on the node where the printing process lives
------------------
     ethr =  3.44E-12,  avg # of iterations =  5.0

     negative rho (up, down):  2.808E-03 0.000E+00

     total cpu time spent up to now is     3008.0 secs

     End of self-consistent calculation

          k = 0.0000 0.0000 0.0000 ( 98419 PWs)   bands (ev):

   -60.2545 -60.2365 -60.2365 -60.2365 -60.2365 -60.2365 -60.2365 -60.2185
   -60.2184 -60.2184 -60.2184 -60.2184 -60.2184 -60.2184 -60.2184 -60.2183
   -34.5460 -34.5460 -34.5460 -34.4797 -34.4797 -34.4797 -34.4797 -34.4797
   -34.4797 -34.3814 -34.3682 -34.3682 -34.3682 -34.3682 -34.3682 -34.3682
   -34.3452 -34.3452 -34.3452 -34.3451 -34.3451 -34.3451 -34.3375 -34.3375
   -34.3375 -34.3375 -34.3375 -34.3375 -34.3087 -34.3087 -34.3087 -34.3087
   -34.3087 -34.3087 -34.3086 -34.3086 -34.3086 -34.2689 -34.2689 -34.2688
   -34.2272 -34.2272 -34.2272 -34.2272 -34.2272 -34.2272 -34.1852 -34.1852
   -13.4140 -12.6004 -12.6004 -12.6004 -12.6004 -12.6004 -12.6003 -12.1073
   -11.7763 -11.7763 -11.7763 -11.7762 -11.7762 -11.7762 -11.6002 -11.6002
   -11.6002 -11.6002 -11.6002 -11.6002 -11.5733 -11.5733 -11.5733 -11.3769
   -11.3769 -11.3769 -11.3558 -11.3558 -11.3558 -11.3558 -11.3558 -11.3558
    -5.0842  -5.0842  -5.0842  -4.9320  -4.4322  -4.4322  -4.4322  -4.4322
    -4.4322  -4.4322  -4.3180  -4.3180  -4.3180  -4.3180  -4.3180  -4.3180
    -4.2372  -4.2372  -4.2372  -4.2372  -4.2372  -4.2372  -4.0957  -4.0957
    -4.0957  -3.3954  -3.3954  -3.3954  -3.1551  -3.1551  -3.1551  -3.1551
    -3.1551  -3.1551  -2.9486  -2.9486  -2.9486  -2.9485  -2.9485  -2.9485
    -2.8970  -2.8970  -2.8970  -2.8970  -2.8970  -2.8970  -2.5548  -2.5548
    -2.5548  -2.5548  -2.5548  -2.5548  -2.5111  -2.5110  -2.5110  -2.2456
    -2.2456  -2.2456  -2.2456  -2.2456  -2.2456  -1.9708  -1.9708  -1.8381
    -1.8381  -1.8381  -1.8381  -1.8381  -1.8381  -1.1981  -1.1981  -1.1981
    -1.1559  -1.1559  -1.1558  -1.1558  -1.1558  -1.1558  -1.0972  -0.9683
    -0.9683  -0.9683  -0.9683  -0.9683  -0.9683  -0.8705  -0.8705  -0.6597
    -0.6597  -0.6597  -0.6597  -0.6597  -0.6597  -0.3480  -0.3480  -0.3480
    -0.0555  -0.0555  -0.0555  -0.0555  -0.0555  -0.0555   0.0249   0.0249
     0.0249   0.1244   0.1244   0.1244   0.1244   0.1244   0.1244   0.6708

     occupation numbers 
     1.0000   1.0000   1.0000   1.0000   1.0000   1.0000   1.0000   1.0000
     1.0000   1.0000   1.0000   1.0000   1.0000   1.0000   1.0000   1.0000
     1.0000   1.0000   1.0000   1.0000   1.0000   1.0000   1.0000   1.0000
     1.0000   1.0000   1.0000   1.0000   1.0000   1.0000   1.0000   1.0000
     1.0000   1.0000   1.0000   1.0000   1.0000   1.0000   1.0000   1.0000
     1.0000   1.0000   1.0000   1.0000   1.0000   1.0000   1.0000   1.0000
     1.0000   1.0000   1.0000   1.0000   1.0000   1.0000   1.0000   1.0000
     1.0000   1.0000   1.0000   1.0000   1.0000   1.0000   1.0000   1.0000
     1.0000   1.0000   1.0000   1.0000   1.0000   1.0000   1.0000   1.0000
     1.0000   1.0000   1.0000   1.0000   1.0000   1.0000   1.0000   1.0000
     1.0000   1.0000   1.0000   1.0000   1.0000   1.0000   1.0000   1.0000
     1.0000   1.0000   1.0000   1.0000   1.0000   1.0000   1.0000   1.0000
     1.0000   1.0000   1.0000   1.0000   1.0000   1.0000   1.0000   1.0000
     1.0000   1.0000   1.0000   1.0000   1.0000   1.0000   1.0000   1.0000
     1.0000   1.0000   1.0000   1.0000   1.0000   1.0000   1.0000   1.0000
     1.0000   1.0000   1.0000   1.0000   1.0000   1.0000   1.0000   1.0000
     1.0000   1.0000   1.0000   1.0000   1.0000   1.0000   1.0000   1.0000
     1.0000   1.0000   1.0000   1.0000   1.0000   1.0000   1.0000   1.0000
     1.0000   1.0000   1.0000   1.0000   1.0000   1.0000   1.0000   1.0000
     1.0000   1.0000   1.0000   1.0000   1.0000   1.0000   1.0000   1.0000
     1.0000   1.0000   1.0000   1.0000   1.0000   1.0000   1.0000   1.0000
     1.0000   1.0000   1.0000   1.0000   1.0000   1.0000   1.0000   1.0000
     1.0000   1.0000   1.0000   1.0000   1.0000   1.0000   1.0000   1.0000
     1.0000   1.0000   1.0000   1.0000   1.0000   1.0000   1.0000   1.0000
     1.0000   1.0000   1.0000   1.0000   1.0000   1.0000   1.0000   1.0000
     1.0000   1.0000   1.0000   1.0000   1.0000   1.0000   1.0000   1.0000

          k = 0.0000 0.1925 0.0000 ( 98305 PWs)   bands (ev):

   -60.2539 -60.2412 -60.2385 -60.2385 -60.2339 -60.2339 -60.2318 -60.2211
   -60.2211 -60.2190 -60.2184 -60.2184 -60.2184 -60.2184 -60.2164 -60.2164
   -34.5426 -34.5426 -34.5400 -34.4860 -34.4860 -34.4836 -34.4836 -34.4712
   -34.4712 -34.4147 -34.3926 -34.3926 -34.3802 -34.3586 -34.3586 -34.3546
   -34.3492 -34.3492 -34.3464 -34.3464 -34.3398 -34.3398 -34.3357 -34.3311
   -34.3310 -34.3213 -34.3140 -34.3140 -34.3136 -34.3136 -34.3099 -34.3087
   -34.3087 -34.3087 -34.3086 -34.3046 -34.3046 -34.2724 -34.2724 -34.2674
   -34.2380 -34.2353 -34.2353 -34.2240 -34.2240 -34.2164 -34.1915 -34.1866
   -13.3885 -12.8256 -12.6998 -12.6998 -12.4675 -12.4675 -12.3618 -12.0968
   -11.8673 -11.8161 -11.8161 -11.7622 -11.7622 -11.7225 -11.7225 -11.6808
   -11.6142 -11.5985 -11.5985 -11.5752 -11.5751 -11.4715 -11.4715 -11.4266
   -11.4266 -11.3920 -11.3755 -11.3755 -11.3572 -11.3572 -11.2987 -11.2987
    -5.0488  -5.0487  -5.0435  -4.9024  -4.4870  -4.4869  -4.4526  -4.4526
    -4.4438  -4.4438  -4.3895  -4.3816  -4.3749  -4.3748  -4.3270  -4.3270
    -4.3223  -4.3223  -4.2286  -4.2286  -4.1062  -4.1062  -4.0545  -3.9743
    -3.9743  -3.3813  -3.3813  -3.3752  -3.2235  -3.2092  -3.1996  -3.1996
    -3.0867  -3.0867  -3.0529  -3.0529  -3.0324  -3.0324  -3.0070  -3.0070
    -2.9878  -2.9878  -2.9744  -2.7319  -2.7319  -2.6178  -2.6178  -2.5730
    -2.5488  -2.5488  -2.5101  -2.5101  -2.4908  -2.4692  -2.4692  -2.4567
    -2.4567  -2.0733  -2.0733  -2.0307  -2.0303  -2.0236  -2.0236  -1.9440
    -1.9188  -1.9188  -1.8291  -1.8291  -1.6277  -1.3716  -1.2997  -1.2716
    -1.2716  -1.1883  -1.1883  -1.1833  -1.1467  -1.1467  -1.0770  -1.0770
    -0.9890  -0.9890  -0.9392  -0.9129  -0.8139  -0.8029  -0.8028  -0.7045
    -0.6769  -0.6769  -0.5231  -0.5231  -0.5161  -0.5102  -0.5102  -0.3730
    -0.2327  -0.1506  -0.1506  -0.0227  -0.0070  -0.0070   0.0461   0.0461
     0.0825   0.0825   0.1312   0.1312   0.1691   0.2859   0.2859   0.6588

     occupation numbers 
     1.0000   1.0000   1.0000   1.0000   1.0000   1.0000   1.0000   1.0000
     1.0000   1.0000   1.0000   1.0000   1.0000   1.0000   1.0000   1.0000
     1.0000   1.0000   1.0000   1.0000   1.0000   1.0000   1.0000   1.0000
     1.0000   1.0000   1.0000   1.0000   1.0000   1.0000   1.0000   1.0000
     1.0000   1.0000   1.0000   1.0000   1.0000   1.0000   1.0000   1.0000
     1.0000   1.0000   1.0000   1.0000   1.0000   1.0000   1.0000   1.0000
     1.0000   1.0000   1.0000   1.0000   1.0000   1.0000   1.0000   1.0000
     1.0000   1.0000   1.0000   1.0000   1.0000   1.0000   1.0000   1.0000
     1.0000   1.0000   1.0000   1.0000   1.0000   1.0000   1.0000   1.0000
     1.0000   1.0000   1.0000   1.0000   1.0000   1.0000   1.0000   1.0000
     1.0000   1.0000   1.0000   1.0000   1.0000   1.0000   1.0000   1.0000
     1.0000   1.0000   1.0000   1.0000   1.0000   1.0000   1.0000   1.0000
     1.0000   1.0000   1.0000   1.0000   1.0000   1.0000   1.0000   1.0000
     1.0000   1.0000   1.0000   1.0000   1.0000   1.0000   1.0000   1.0000
     1.0000   1.0000   1.0000   1.0000   1.0000   1.0000   1.0000   1.0000
     1.0000   1.0000   1.0000   1.0000   1.0000   1.0000   1.0000   1.0000
     1.0000   1.0000   1.0000   1.0000   1.0000   1.0000   1.0000   1.0000
     1.0000   1.0000   1.0000   1.0000   1.0000   1.0000   1.0000   1.0000
     1.0000   1.0000   1.0000   1.0000   1.0000   1.0000   1.0000   1.0000
     1.0000   1.0000   1.0000   1.0000   1.0000   1.0000   1.0000   1.0000
     1.0000   1.0000   1.0000   1.0000   1.0000   1.0000   1.0000   1.0000
     1.0000   1.0000   1.0000   1.0000   1.0000   1.0000   1.0000   1.0000
     1.0000   1.0000   1.0000   1.0000   1.0000   1.0000   1.0000   1.0000
     1.0000   1.0000   1.0000   1.0000   1.0000   1.0000   1.0000   1.0000
     1.0000   1.0000   1.0000   1.0000   1.0000   1.0000   1.0000   1.0000
     1.0000   1.0000   1.0000   1.0000   1.0000   1.0000   1.0000   1.0000

          k = 0.0000 0.3849 0.0000 ( 98343 PWs)   bands (ev):

   -60.2521 -60.2455 -60.2398 -60.2398 -60.2308 -60.2308 -60.2275 -60.2242
   -60.2241 -60.2208 -60.2184 -60.2184 -60.2184 -60.2184 -60.2151 -60.2151
   -34.5329 -34.5329 -34.5225 -34.5010 -34.5010 -34.4843 -34.4843 -34.4577
   -34.4576 -34.4576 -34.4170 -34.4170 -34.3766 -34.3735 -34.3735 -34.3633
   -34.3518 -34.3518 -34.3336 -34.3336 -34.3307 -34.3307 -34.3269 -34.3203
   -34.3203 -34.3156 -34.3156 -34.3135 -34.3087 -34.3087 -34.3087 -34.3086
   -34.3020 -34.3020 -34.2894 -34.2894 -34.2826 -34.2826 -34.2773 -34.2633
   -34.2488 -34.2488 -34.2481 -34.2240 -34.2240 -34.2100 -34.2062 -34.1908
   -13.3129 -13.0253 -12.7612 -12.7612 -12.3075 -12.3075 -12.1249 -12.0659
   -11.9485 -11.9432 -11.9432 -11.8406 -11.8406 -11.7308 -11.6570 -11.6570
   -11.5936 -11.5936 -11.5873 -11.5801 -11.5801 -11.5043 -11.5043 -11.4357
   -11.3885 -11.3885 -11.3716 -11.3716 -11.3611 -11.3611 -11.2614 -11.2614
    -4.9473  -4.9472  -4.9282  -4.8165  -4.6262  -4.6262  -4.5749  -4.5749
    -4.5606  -4.5259  -4.4370  -4.4370  -4.3558  -4.3558  -4.3296  -4.3296
    -4.3014  -4.3014  -4.2046  -4.2046  -4.1342  -4.1341  -3.9340  -3.6868
    -3.6868  -3.4966  -3.3390  -3.3390  -3.3242  -3.2377  -3.2156  -3.2156
    -3.1977  -3.1977  -3.1641  -3.1641  -3.1506  -3.1506  -3.0674  -3.0674
    -3.0265  -3.0264  -2.7152  -2.6142  -2.6142  -2.5702  -2.5702  -2.5495
    -2.5495  -2.5342  -2.5342  -2.5109  -2.5109  -2.4306  -2.3604  -2.3604
    -2.2901  -2.2901  -2.2458  -2.1973  -2.1967  -1.9376  -1.9376  -1.8651
    -1.7033  -1.7033  -1.6020  -1.5799  -1.5799  -1.5702  -1.4116  -1.3649
    -1.3649  -1.2948  -1.2948  -1.1572  -1.1572  -1.1383  -1.1122  -1.1122
    -1.0417  -1.0417  -1.0316  -0.9521  -0.8551  -0.8551  -0.7393  -0.6823
    -0.6823  -0.6379  -0.6379  -0.5203  -0.4479  -0.4232  -0.3516  -0.3516
    -0.3050  -0.1900  -0.1900  -0.1396  -0.0996  -0.0996   0.1188   0.1188
     0.1409   0.1409   0.1467   0.1467   0.3770   0.4339   0.4339   0.6165

     occupation numbers 
     1.0000   1.0000   1.0000   1.0000   1.0000   1.0000   1.0000   1.0000
     1.0000   1.0000   1.0000   1.0000   1.0000   1.0000   1.0000   1.0000
     1.0000   1.0000   1.0000   1.0000   1.0000   1.0000   1.0000   1.0000
     1.0000   1.0000   1.0000   1.0000   1.0000   1.0000   1.0000   1.0000
     1.0000   1.0000   1.0000   1.0000   1.0000   1.0000   1.0000   1.0000
     1.0000   1.0000   1.0000   1.0000   1.0000   1.0000   1.0000   1.0000
     1.0000   1.0000   1.0000   1.0000   1.0000   1.0000   1.0000   1.0000
     1.0000   1.0000   1.0000   1.0000   1.0000   1.0000   1.0000   1.0000
     1.0000   1.0000   1.0000   1.0000   1.0000   1.0000   1.0000   1.0000
     1.0000   1.0000   1.0000   1.0000   1.0000   1.0000   1.0000   1.0000
     1.0000   1.0000   1.0000   1.0000   1.0000   1.0000   1.0000   1.0000
     1.0000   1.0000   1.0000   1.0000   1.0000   1.0000   1.0000   1.0000
     1.0000   1.0000   1.0000   1.0000   1.0000   1.0000   1.0000   1.0000
     1.0000   1.0000   1.0000   1.0000   1.0000   1.0000   1.0000   1.0000
     1.0000   1.0000   1.0000   1.0000   1.0000   1.0000   1.0000   1.0000
     1.0000   1.0000   1.0000   1.0000   1.0000   1.0000   1.0000   1.0000
     1.0000   1.0000   1.0000   1.0000   1.0000   1.0000   1.0000   1.0000
     1.0000   1.0000   1.0000   1.0000   1.0000   1.0000   1.0000   1.0000
     1.0000   1.0000   1.0000   1.0000   1.0000   1.0000   1.0000   1.0000
     1.0000   1.0000   1.0000   1.0000   1.0000   1.0000   1.0000   1.0000
     1.0000   1.0000   1.0000   1.0000   1.0000   1.0000   1.0000   1.0000
     1.0000   1.0000   1.0000   1.0000   1.0000   1.0000   1.0000   1.0000
     1.0000   1.0000   1.0000   1.0000   1.0000   1.0000   1.0000   1.0000
     1.0000   1.0000   1.0000   1.0000   1.0000   1.0000   1.0000   1.0000
     1.0000   1.0000   1.0000   1.0000   1.0000   1.0000   1.0000   1.0000
     1.0000   1.0000   1.0000   1.0000   1.0000   1.0000   1.0000   1.0000

          k = 0.0000-0.5774 0.0000 ( 98234 PWs)   bands (ev):

   -60.2493 -60.2492 -60.2402 -60.2402 -60.2275 -60.2275 -60.2275 -60.2274
   -60.2237 -60.2237 -60.2184 -60.2184 -60.2184 -60.2184 -60.2146 -60.2146
   -34.5182 -34.5182 -34.5182 -34.5181 -34.4945 -34.4944 -34.4841 -34.4841
   -34.4391 -34.4391 -34.4391 -34.4391 -34.3790 -34.3790 -34.3708 -34.3708
   -34.3527 -34.3527 -34.3269 -34.3269 -34.3269 -34.3269 -34.3248 -34.3248
   -34.3194 -34.3193 -34.3087 -34.3087 -34.3087 -34.3086 -34.3011 -34.3011
   -34.2979 -34.2979 -34.2979 -34.2979 -34.2673 -34.2673 -34.2672 -34.2672
   -34.2567 -34.2567 -34.2393 -34.2393 -34.2245 -34.2245 -34.1975 -34.1975
   -13.1901 -13.1901 -12.7820 -12.7819 -12.1292 -12.1292 -12.1292 -12.1292
   -12.0158 -12.0157 -11.9078 -11.9078 -11.8488 -11.8488 -11.5869 -11.5869
   -11.5869 -11.5869 -11.5829 -11.5829 -11.5829 -11.5829 -11.5031 -11.5030
   -11.3664 -11.3664 -11.3664 -11.3663 -11.3598 -11.3598 -11.2484 -11.2484
    -4.7960  -4.7960  -4.7959  -4.7959  -4.7570  -4.7570  -4.6841  -4.6841
    -4.6198  -4.6198  -4.3983  -4.3983  -4.3983  -4.3983  -4.3328  -4.3328
    -4.2639  -4.2639  -4.1704  -4.1704  -4.1704  -4.1704  -3.7436  -3.7436
    -3.4216  -3.4216  -3.4216  -3.4216  -3.2688  -3.2688  -3.2677  -3.2677
    -3.2677  -3.2677  -3.2265  -3.2265  -3.1474  -3.1474  -3.1474  -3.1474
    -3.0025  -3.0025  -2.5639  -2.5639  -2.5191  -2.5191  -2.5191  -2.5191
    -2.5089  -2.5089  -2.5089  -2.5089  -2.4854  -2.4854  -2.4391  -2.4390
    -2.3320  -2.3319  -2.3175  -2.3175  -2.0133  -2.0133  -1.9207  -1.9207
    -1.7381  -1.7381  -1.4002  -1.4002  -1.3556  -1.3556  -1.2928  -1.2928
    -1.2928  -1.2928  -1.2737  -1.2737  -1.2737  -1.2737  -1.2058  -1.2058
    -1.1049  -1.1049  -1.1049  -1.1049  -1.0615  -1.0615  -0.6274  -0.6274
    -0.6274  -0.6274  -0.5718  -0.5718  -0.4198  -0.4198  -0.2762  -0.2762
    -0.2591  -0.2591  -0.1629  -0.1629  -0.1629  -0.1629   0.1449   0.1449
     0.1567   0.1567   0.1567   0.1567   0.4969   0.4969   0.5279   0.5279

     occupation numbers 
     1.0000   1.0000   1.0000   1.0000   1.0000   1.0000   1.0000   1.0000
     1.0000   1.0000   1.0000   1.0000   1.0000   1.0000   1.0000   1.0000
     1.0000   1.0000   1.0000   1.0000   1.0000   1.0000   1.0000   1.0000
     1.0000   1.0000   1.0000   1.0000   1.0000   1.0000   1.0000   1.0000
     1.0000   1.0000   1.0000   1.0000   1.0000   1.0000   1.0000   1.0000
     1.0000   1.0000   1.0000   1.0000   1.0000   1.0000   1.0000   1.0000
     1.0000   1.0000   1.0000   1.0000   1.0000   1.0000   1.0000   1.0000
     1.0000   1.0000   1.0000   1.0000   1.0000   1.0000   1.0000   1.0000
     1.0000   1.0000   1.0000   1.0000   1.0000   1.0000   1.0000   1.0000
     1.0000   1.0000   1.0000   1.0000   1.0000   1.0000   1.0000   1.0000
     1.0000   1.0000   1.0000   1.0000   1.0000   1.0000   1.0000   1.0000
     1.0000   1.0000   1.0000   1.0000   1.0000   1.0000   1.0000   1.0000
     1.0000   1.0000   1.0000   1.0000   1.0000   1.0000   1.0000   1.0000
     1.0000   1.0000   1.0000   1.0000   1.0000   1.0000   1.0000   1.0000
     1.0000   1.0000   1.0000   1.0000   1.0000   1.0000   1.0000   1.0000
     1.0000   1.0000   1.0000   1.0000   1.0000   1.0000   1.0000   1.0000
     1.0000   1.0000   1.0000   1.0000   1.0000   1.0000   1.0000   1.0000
     1.0000   1.0000   1.0000   1.0000   1.0000   1.0000   1.0000   1.0000
     1.0000   1.0000   1.0000   1.0000   1.0000   1.0000   1.0000   1.0000
     1.0000   1.0000   1.0000   1.0000   1.0000   1.0000   1.0000   1.0000
     1.0000   1.0000   1.0000   1.0000   1.0000   1.0000   1.0000   1.0000
     1.0000   1.0000   1.0000   1.0000   1.0000   1.0000   1.0000   1.0000
     1.0000   1.0000   1.0000   1.0000   1.0000   1.0000   1.0000   1.0000
     1.0000   1.0000   1.0000   1.0000   1.0000   1.0000   1.0000   1.0000
     1.0000   1.0000   1.0000   1.0000   1.0000   1.0000   1.0000   1.0000
     1.0000   1.0000   1.0000   1.0000   1.0000   1.0000   1.0000   1.0000

          k = 0.1667 0.2887 0.0000 ( 98339 PWs)   bands (ev):

   -60.2527 -60.2431 -60.2430 -60.2353 -60.2353 -60.2293 -60.2293 -60.2243
   -60.2209 -60.2209 -60.2196 -60.2196 -60.2178 -60.2165 -60.2165 -60.2149
   -34.5384 -34.5310 -34.5310 -34.4959 -34.4959 -34.4823 -34.4823 -34.4762
   -34.4518 -34.4369 -34.4369 -34.3836 -34.3778 -34.3740 -34.3740 -34.3583
   -34.3583 -34.3440 -34.3440 -34.3427 -34.3427 -34.3307 -34.3307 -34.3206
   -34.3137 -34.3137 -34.3111 -34.3111 -34.3075 -34.3049 -34.3049 -34.3042
   -34.3041 -34.3017 -34.3014 -34.3014 -34.2934 -34.2842 -34.2695 -34.2695
   -34.2462 -34.2462 -34.2364 -34.2364 -34.2131 -34.2131 -34.2038 -34.1895
   -13.3379 -12.9125 -12.9125 -12.5408 -12.5408 -12.2290 -12.2290 -12.0761
   -11.9535 -11.9025 -11.9025 -11.7510 -11.7510 -11.7497 -11.7497 -11.6547
   -11.6547 -11.6274 -11.6274 -11.5406 -11.5071 -11.4781 -11.4781 -11.4249
   -11.4249 -11.4052 -11.4052 -11.3798 -11.3566 -11.3060 -11.3060 -11.2553
    -4.9831  -4.9713  -4.9713  -4.8446  -4.6004  -4.5434  -4.5434  -4.4961
    -4.4961  -4.4571  -4.4571  -4.4327  -4.4327  -4.4088  -4.4088  -4.3941
    -4.2799  -4.2799  -4.2160  -4.1786  -4.0227  -4.0227  -3.9806  -3.9806
    -3.6673  -3.3617  -3.3600  -3.3600  -3.3423  -3.3423  -3.2226  -3.2226
    -3.1646  -3.1646  -3.1419  -3.1419  -3.0850  -3.0850  -3.0746  -3.0320
    -2.8868  -2.8868  -2.8691  -2.8691  -2.7538  -2.6463  -2.5847  -2.5847
    -2.5165  -2.4780  -2.4780  -2.4673  -2.4673  -2.4107  -2.4107  -2.3412
    -2.1867  -2.1867  -2.1429  -2.1426  -2.1426  -2.1369  -2.1369  -1.8915
    -1.6833  -1.6729  -1.6729  -1.6102  -1.6101  -1.5157  -1.4676  -1.4675
    -1.3094  -1.2178  -1.2178  -1.1837  -1.1551  -1.1551  -1.1521  -1.1521
    -1.0021  -0.9061  -0.9061  -0.8694  -0.8694  -0.8351  -0.8339  -0.8339
    -0.6333  -0.5596  -0.5596  -0.5567  -0.4759  -0.4759  -0.4070  -0.4070
    -0.2556  -0.2556  -0.1036  -0.0733  -0.0733  -0.0020  -0.0020   0.0081
     0.0081   0.1861   0.2643   0.2643   0.2825   0.2825   0.4513   0.6317

     occupation numbers 
     1.0000   1.0000   1.0000   1.0000   1.0000   1.0000   1.0000   1.0000
     1.0000   1.0000   1.0000   1.0000   1.0000   1.0000   1.0000   1.0000
     1.0000   1.0000   1.0000   1.0000   1.0000   1.0000   1.0000   1.0000
     1.0000   1.0000   1.0000   1.0000   1.0000   1.0000   1.0000   1.0000
     1.0000   1.0000   1.0000   1.0000   1.0000   1.0000   1.0000   1.0000
     1.0000   1.0000   1.0000   1.0000   1.0000   1.0000   1.0000   1.0000
     1.0000   1.0000   1.0000   1.0000   1.0000   1.0000   1.0000   1.0000
     1.0000   1.0000   1.0000   1.0000   1.0000   1.0000   1.0000   1.0000
     1.0000   1.0000   1.0000   1.0000   1.0000   1.0000   1.0000   1.0000
     1.0000   1.0000   1.0000   1.0000   1.0000   1.0000   1.0000   1.0000
     1.0000   1.0000   1.0000   1.0000   1.0000   1.0000   1.0000   1.0000
     1.0000   1.0000   1.0000   1.0000   1.0000   1.0000   1.0000   1.0000
     1.0000   1.0000   1.0000   1.0000   1.0000   1.0000   1.0000   1.0000
     1.0000   1.0000   1.0000   1.0000   1.0000   1.0000   1.0000   1.0000
     1.0000   1.0000   1.0000   1.0000   1.0000   1.0000   1.0000   1.0000
     1.0000   1.0000   1.0000   1.0000   1.0000   1.0000   1.0000   1.0000
     1.0000   1.0000   1.0000   1.0000   1.0000   1.0000   1.0000   1.0000
     1.0000   1.0000   1.0000   1.0000   1.0000   1.0000   1.0000   1.0000
     1.0000   1.0000   1.0000   1.0000   1.0000   1.0000   1.0000   1.0000
     1.0000   1.0000   1.0000   1.0000   1.0000   1.0000   1.0000   1.0000
     1.0000   1.0000   1.0000   1.0000   1.0000   1.0000   1.0000   1.0000
     1.0000   1.0000   1.0000   1.0000   1.0000   1.0000   1.0000   1.0000
     1.0000   1.0000   1.0000   1.0000   1.0000   1.0000   1.0000   1.0000
     1.0000   1.0000   1.0000   1.0000   1.0000   1.0000   1.0000   1.0000
     1.0000   1.0000   1.0000   1.0000   1.0000   1.0000   1.0000   1.0000
     1.0000   1.0000   1.0000   1.0000   1.0000   1.0000   1.0000   1.0000

          k = 0.1667 0.4811 0.0000 ( 98346 PWs)   bands (ev):

   -60.2504 -60.2471 -60.2440 -60.2360 -60.2317 -60.2279 -60.2266 -60.2253
   -60.2237 -60.2220 -60.2206 -60.2201 -60.2173 -60.2168 -60.2156 -60.2142
   -34.5279 -34.5167 -34.5127 -34.5084 -34.5008 -34.4992 -34.4764 -34.4723
   -34.4683 -34.4567 -34.4283 -34.4019 -34.4008 -34.3731 -34.3664 -34.3629
   -34.3603 -34.3509 -34.3442 -34.3354 -34.3279 -34.3251 -34.3229 -34.3225
   -34.3193 -34.3158 -34.3131 -34.3122 -34.3064 -34.3055 -34.3029 -34.3017
   -34.3002 -34.2905 -34.2900 -34.2800 -34.2778 -34.2726 -34.2639 -34.2608
   -34.2604 -34.2559 -34.2530 -34.2384 -34.2275 -34.2125 -34.2032 -34.1952
   -13.2387 -13.0949 -12.9569 -12.5782 -12.3563 -12.1564 -12.0764 -12.0356
   -12.0010 -11.9768 -11.9204 -11.9130 -11.8027 -11.7655 -11.7259 -11.6932
   -11.6750 -11.5920 -11.5647 -11.5379 -11.5125 -11.4958 -11.4917 -11.4614
   -11.4212 -11.4149 -11.4142 -11.3372 -11.3317 -11.3195 -11.2787 -11.2321
    -4.8528  -4.8452  -4.8289  -4.7350  -4.6898  -4.6825  -4.6771  -4.6450
    -4.5881  -4.5491  -4.5155  -4.5021  -4.4927  -4.4613  -4.3448  -4.3275
    -4.2809  -4.2631  -4.2549  -4.0635  -4.0038  -3.9908  -3.8619  -3.7355
    -3.6357  -3.5274  -3.3457  -3.3175  -3.2836  -3.2820  -3.2566  -3.2470
    -3.2376  -3.2289  -3.1946  -3.1939  -3.1738  -3.1439  -3.1390  -3.1151
    -3.0747  -2.8278  -2.8054  -2.7424  -2.6032  -2.6019  -2.5362  -2.5345
    -2.5057  -2.4922  -2.4858  -2.4352  -2.4136  -2.4089  -2.3904  -2.3460
    -2.3167  -2.2854  -2.2827  -2.2517  -2.1537  -2.0974  -1.7960  -1.7898
    -1.7035  -1.6797  -1.6451  -1.5253  -1.4395  -1.4238  -1.3821  -1.3178
    -1.3054  -1.3025  -1.2678  -1.2577  -1.2513  -1.1765  -1.1692  -1.1667
    -1.0802  -1.0796  -1.0465  -0.9752  -0.9720  -0.9103  -0.8083  -0.8068
    -0.7680  -0.6510  -0.5115  -0.4591  -0.4213  -0.3662  -0.3331  -0.2966
    -0.2354  -0.1890  -0.1527  -0.1465  -0.1286  -0.0932  -0.0296   0.0266
     0.0291   0.2445   0.2717   0.3153   0.3877   0.4458   0.5662   0.5686

     occupation numbers 
     1.0000   1.0000   1.0000   1.0000   1.0000   1.0000   1.0000   1.0000
     1.0000   1.0000   1.0000   1.0000   1.0000   1.0000   1.0000   1.0000
     1.0000   1.0000   1.0000   1.0000   1.0000   1.0000   1.0000   1.0000
     1.0000   1.0000   1.0000   1.0000   1.0000   1.0000   1.0000   1.0000
     1.0000   1.0000   1.0000   1.0000   1.0000   1.0000   1.0000   1.0000
     1.0000   1.0000   1.0000   1.0000   1.0000   1.0000   1.0000   1.0000
     1.0000   1.0000   1.0000   1.0000   1.0000   1.0000   1.0000   1.0000
     1.0000   1.0000   1.0000   1.0000   1.0000   1.0000   1.0000   1.0000
     1.0000   1.0000   1.0000   1.0000   1.0000   1.0000   1.0000   1.0000
     1.0000   1.0000   1.0000   1.0000   1.0000   1.0000   1.0000   1.0000
     1.0000   1.0000   1.0000   1.0000   1.0000   1.0000   1.0000   1.0000
     1.0000   1.0000   1.0000   1.0000   1.0000   1.0000   1.0000   1.0000
     1.0000   1.0000   1.0000   1.0000   1.0000   1.0000   1.0000   1.0000
     1.0000   1.0000   1.0000   1.0000   1.0000   1.0000   1.0000   1.0000
     1.0000   1.0000   1.0000   1.0000   1.0000   1.0000   1.0000   1.0000
     1.0000   1.0000   1.0000   1.0000   1.0000   1.0000   1.0000   1.0000
     1.0000   1.0000   1.0000   1.0000   1.0000   1.0000   1.0000   1.0000
     1.0000   1.0000   1.0000   1.0000   1.0000   1.0000   1.0000   1.0000
     1.0000   1.0000   1.0000   1.0000   1.0000   1.0000   1.0000   1.0000
     1.0000   1.0000   1.0000   1.0000   1.0000   1.0000   1.0000   1.0000
     1.0000   1.0000   1.0000   1.0000   1.0000   1.0000   1.0000   1.0000
     1.0000   1.0000   1.0000   1.0000   1.0000   1.0000   1.0000   1.0000
     1.0000   1.0000   1.0000   1.0000   1.0000   1.0000   1.0000   1.0000
     1.0000   1.0000   1.0000   1.0000   1.0000   1.0000   1.0000   1.0000
     1.0000   1.0000   1.0000   1.0000   1.0000   1.0000   1.0000   1.0000
     1.0000   1.0000   1.0000   1.0000   1.0000   1.0000   1.0000   1.0000

          k = 0.3333 0.5774 0.0000 ( 98352 PWs)   bands (ev):

   -60.2476 -60.2476 -60.2476 -60.2320 -60.2320 -60.2320 -60.2230 -60.2230
   -60.2229 -60.2229 -60.2229 -60.2229 -60.2163 -60.2163 -60.2163 -60.2139
   -34.5167 -34.5167 -34.5167 -34.4907 -34.4907 -34.4907 -34.4907 -34.4907
   -34.4907 -34.4574 -34.4154 -34.3961 -34.3961 -34.3961 -34.3675 -34.3675
   -34.3675 -34.3361 -34.3361 -34.3360 -34.3254 -34.3254 -34.3254 -34.3178
   -34.3178 -34.3178 -34.3178 -34.3178 -34.3178 -34.3045 -34.3044 -34.3044
   -34.2996 -34.2703 -34.2703 -34.2702 -34.2702 -34.2702 -34.2702 -34.2551
   -34.2551 -34.2551 -34.2548 -34.2548 -34.2548 -34.2026 -34.2026 -34.2026
   -13.1184 -13.1184 -13.1184 -12.3728 -12.3728 -12.3728 -11.9864 -11.9864
   -11.9864 -11.8650 -11.8650 -11.8650 -11.8650 -11.8650 -11.8650 -11.6811
   -11.6811 -11.6811 -11.4815 -11.4815 -11.4815 -11.4815 -11.4815 -11.4815
   -11.4562 -11.4562 -11.4561 -11.3123 -11.3051 -11.3051 -11.3051 -11.2220
    -4.7197  -4.6941  -4.6941  -4.6941  -4.6927  -4.6927  -4.6927  -4.6927
    -4.6927  -4.6927  -4.6098  -4.6098  -4.6098  -4.3925  -4.3925  -4.3925
    -4.2531  -4.2531  -4.2531  -3.9078  -3.7967  -3.7967  -3.7967  -3.7967
    -3.7967  -3.7967  -3.3932  -3.2810  -3.2810  -3.2810  -3.2218  -3.2218
    -3.2218  -3.2217  -3.2217  -3.2217  -3.1638  -3.1638  -3.1638  -3.0019
    -3.0019  -3.0019  -2.8975  -2.5619  -2.5619  -2.5619  -2.5139  -2.5139
    -2.5139  -2.4654  -2.4654  -2.4654  -2.4546  -2.4546  -2.4546  -2.4546
    -2.4546  -2.4546  -2.2011  -2.0296  -2.0296  -2.0296  -1.7008  -1.7008
    -1.7008  -1.6728  -1.6728  -1.6728  -1.4813  -1.4049  -1.4049  -1.4049
    -1.3255  -1.3255  -1.3255  -1.2132  -1.2132  -1.2132  -0.9822  -0.9822
    -0.9822  -0.9822  -0.9822  -0.9822  -0.9596  -0.9596  -0.9596  -0.9596
    -0.9596  -0.9596  -0.3872  -0.3872  -0.3872  -0.3265  -0.3264  -0.3264
    -0.1317  -0.1317  -0.1317  -0.0983  -0.0983  -0.0983  -0.0983  -0.0983
    -0.0983   0.3235   0.3235   0.3235   0.4686   0.4686   0.4687   0.6259

     occupation numbers 
     1.0000   1.0000   1.0000   1.0000   1.0000   1.0000   1.0000   1.0000
     1.0000   1.0000   1.0000   1.0000   1.0000   1.0000   1.0000   1.0000
     1.0000   1.0000   1.0000   1.0000   1.0000   1.0000   1.0000   1.0000
     1.0000   1.0000   1.0000   1.0000   1.0000   1.0000   1.0000   1.0000
     1.0000   1.0000   1.0000   1.0000   1.0000   1.0000   1.0000   1.0000
     1.0000   1.0000   1.0000   1.0000   1.0000   1.0000   1.0000   1.0000
     1.0000   1.0000   1.0000   1.0000   1.0000   1.0000   1.0000   1.0000
     1.0000   1.0000   1.0000   1.0000   1.0000   1.0000   1.0000   1.0000
     1.0000   1.0000   1.0000   1.0000   1.0000   1.0000   1.0000   1.0000
     1.0000   1.0000   1.0000   1.0000   1.0000   1.0000   1.0000   1.0000
     1.0000   1.0000   1.0000   1.0000   1.0000   1.0000   1.0000   1.0000
     1.0000   1.0000   1.0000   1.0000   1.0000   1.0000   1.0000   1.0000
     1.0000   1.0000   1.0000   1.0000   1.0000   1.0000   1.0000   1.0000
     1.0000   1.0000   1.0000   1.0000   1.0000   1.0000   1.0000   1.0000
     1.0000   1.0000   1.0000   1.0000   1.0000   1.0000   1.0000   1.0000
     1.0000   1.0000   1.0000   1.0000   1.0000   1.0000   1.0000   1.0000
     1.0000   1.0000   1.0000   1.0000   1.0000   1.0000   1.0000   1.0000
     1.0000   1.0000   1.0000   1.0000   1.0000   1.0000   1.0000   1.0000
     1.0000   1.0000   1.0000   1.0000   1.0000   1.0000   1.0000   1.0000
     1.0000   1.0000   1.0000   1.0000   1.0000   1.0000   1.0000   1.0000
     1.0000   1.0000   1.0000   1.0000   1.0000   1.0000   1.0000   1.0000
     1.0000   1.0000   1.0000   1.0000   1.0000   1.0000   1.0000   1.0000
     1.0000   1.0000   1.0000   1.0000   1.0000   1.0000   1.0000   1.0000
     1.0000   1.0000   1.0000   1.0000   1.0000   1.0000   1.0000   1.0000
     1.0000   1.0000   1.0000   1.0000   1.0000   1.0000   1.0000   1.0000
     1.0000   1.0000   1.0000   1.0000   1.0000   1.0000   1.0000   1.0000

     highest occupied level (ev):     0.6708

!    total energy              =   -3003.72359567 Ry
     estimated scf accuracy    <          4.2E-09 Ry

     The total energy is the sum of the following terms:
     one-electron contribution =  -11355.57309273 Ry
     hartree contribution      =    5708.72968067 Ry
     xc contribution           =    -580.21853813 Ry
     ewald contribution        =    3223.33835452 Ry

     convergence has been achieved in   6 iterations

     negative rho (up, down):  2.808E-03 0.000E+00

     Forces acting on atoms (cartesian axes, Ry/au):

     atom    1 type  1   force =    -0.00000060   -0.00000034    0.00000013
     atom    2 type  1   force =     0.00000000    0.00000005    0.00000006
     atom    3 type  1   force =    -0.00000015   -0.00000009    0.00000003
     atom    4 type  1   force =     0.00000004   -0.00000002    0.00000006
     atom    5 type  1   force =    -0.00000081   -0.00000063    0.00000009
     atom    6 type  1   force =    -0.00000095   -0.00000039    0.00000009
     atom    7 type  1   force =     0.00000015   -0.00000009    0.00000003
     atom    8 type  1   force =     0.00000000    0.00000017    0.00000003
     atom    9 type  1   force =     0.00000081   -0.00000063    0.00000009
     atom   10 type  1   force =     0.00000000    0.00000000    0.00000004
     atom   11 type  1   force =    -0.00000014    0.00000102    0.00000009
     atom   12 type  1   force =    -0.00000004   -0.00000002    0.00000006
     atom   13 type  1   force =     0.00000060   -0.00000034    0.00000013
     atom   14 type  1   force =     0.00000095   -0.00000039    0.00000009
     atom   15 type  1   force =     0.00000014    0.00000102    0.00000009
     atom   16 type  1   force =    -0.00000000    0.00000069    0.00000013
     atom   17 type  2   force =     0.00000000   -0.00000004   -0.00027670
     atom   18 type  2   force =     0.00000032   -0.00000062   -0.00027725
     atom   19 type  2   force =    -0.00000038    0.00000059   -0.00027725
     atom   20 type  2   force =    -0.00000004    0.00000002   -0.00027670
     atom   21 type  2   force =    -0.00000054   -0.00000031   -0.00027671
     atom   22 type  2   force =    -0.00000032   -0.00000062   -0.00027725
     atom   23 type  2   force =     0.00000000   -0.00000000   -0.00027685
     atom   24 type  2   force =    -0.00000069    0.00000003   -0.00027725
     atom   25 type  2   force =    -0.00000000   -0.00000295   -0.00027480
     atom   26 type  2   force =    -0.00000256    0.00000148   -0.00027480
     atom   27 type  2   force =     0.00000038    0.00000059   -0.00027725
     atom   28 type  2   force =     0.00000069    0.00000003   -0.00027725
     atom   29 type  2   force =     0.00000054   -0.00000031   -0.00027671
     atom   30 type  2   force =     0.00000256    0.00000148   -0.00027480
     atom   31 type  2   force =     0.00000000    0.00000063   -0.00027671
     atom   32 type  2   force =     0.00000004    0.00000002   -0.00027670
     atom   33 type  2   force =     0.00000000    0.00000001    0.00027657
     atom   34 type  2   force =     0.00000033   -0.00000059    0.00027720
     atom   35 type  2   force =    -0.00000034    0.00000058    0.00027720
     atom   36 type  2   force =     0.00000001   -0.00000001    0.00027657
     atom   37 type  2   force =    -0.00000053   -0.00000030    0.00027662
     atom   38 type  2   force =    -0.00000033   -0.00000059    0.00027720
     atom   39 type  2   force =     0.00000000    0.00000000    0.00027683
     atom   40 type  2   force =    -0.00000067    0.00000000    0.00027720
     atom   41 type  2   force =     0.00000000   -0.00000294    0.00027471
     atom   42 type  2   force =    -0.00000255    0.00000147    0.00027471
     atom   43 type  2   force =     0.00000034    0.00000058    0.00027720
     atom   44 type  2   force =     0.00000067    0.00000000    0.00027720
     atom   45 type  2   force =     0.00000053   -0.00000030    0.00027662
     atom   46 type  2   force =     0.00000255    0.00000147    0.00027471
     atom   47 type  2   force =     0.00000000    0.00000061    0.00027662
     atom   48 type  2   force =    -0.00000001   -0.00000001    0.00027657
     The non-local contrib.  to forces
     atom    1 type  1   force =    -0.00000296   -0.00000171   -0.00000690
     atom    2 type  1   force =     0.00000000   -0.00000603   -0.00000689
     atom    3 type  1   force =    -0.00000245   -0.00000141   -0.00000696
     atom    4 type  1   force =    -0.00000522    0.00000301   -0.00000689
     atom    5 type  1   force =    -0.00000234    0.00000170   -0.00000693
     atom    6 type  1   force =     0.00000031   -0.00000288   -0.00000693
     atom    7 type  1   force =     0.00000245   -0.00000141   -0.00000696
     atom    8 type  1   force =     0.00000000    0.00000283   -0.00000696
     atom    9 type  1   force =     0.00000234    0.00000170   -0.00000693
     atom   10 type  1   force =     0.00000000    0.00000000   -0.00000684
     atom   11 type  1   force =     0.00000265    0.00000117   -0.00000693
     atom   12 type  1   force =     0.00000522    0.00000301   -0.00000689
     atom   13 type  1   force =     0.00000296   -0.00000171   -0.00000690
     atom   14 type  1   force =    -0.00000031   -0.00000288   -0.00000693
     atom   15 type  1   force =    -0.00000265    0.00000117   -0.00000693
     atom   16 type  1   force =     0.00000000    0.00000342   -0.00000690
     atom   17 type  2   force =     0.00000000    0.00000087   -0.27982089
     atom   18 type  2   force =     0.00000039    0.00000101   -0.27982255
     atom   19 type  2   force =     0.00000107   -0.00000017   -0.27982255
     atom   20 type  2   force =     0.00000076   -0.00000044   -0.27982089
     atom   21 type  2   force =     0.00000097    0.00000056   -0.27982115
     atom   22 type  2   force =    -0.00000039    0.00000101   -0.27982255
     atom   23 type  2   force =     0.00000000    0.00000000   -0.27982274
     atom   24 type  2   force =     0.00000068   -0.00000084   -0.27982255
     atom   25 type  2   force =     0.00000000   -0.00000064   -0.27982203
     atom   26 type  2   force =    -0.00000055    0.00000032   -0.27982203
     atom   27 type  2   force =    -0.00000107   -0.00000017   -0.27982255
     atom   28 type  2   force =    -0.00000068   -0.00000084   -0.27982255
     atom   29 type  2   force =    -0.00000097    0.00000056   -0.27982115
     atom   30 type  2   force =     0.00000055    0.00000032   -0.27982203
     atom   31 type  2   force =     0.00000000   -0.00000112   -0.27982115
     atom   32 type  2   force =    -0.00000076   -0.00000044   -0.27982089
     atom   33 type  2   force =     0.00000000    0.00000090    0.27981855
     atom   34 type  2   force =     0.00000042    0.00000102    0.27982028
     atom   35 type  2   force =     0.00000110   -0.00000014    0.27982028
     atom   36 type  2   force =     0.00000078   -0.00000045    0.27981855
     atom   37 type  2   force =     0.00000099    0.00000057    0.27981882
     atom   38 type  2   force =    -0.00000042    0.00000102    0.27982028
     atom   39 type  2   force =     0.00000000    0.00000000    0.27982049
     atom   40 type  2   force =     0.00000067   -0.00000088    0.27982028
     atom   41 type  2   force =     0.00000000   -0.00000067    0.27981971
     atom   42 type  2   force =    -0.00000058    0.00000034    0.27981971
     atom   43 type  2   force =    -0.00000110   -0.00000014    0.27982028
     atom   44 type  2   force =    -0.00000067   -0.00000088    0.27982028
     atom   45 type  2   force =    -0.00000099    0.00000057    0.27981882
     atom   46 type  2   force =     0.00000058    0.00000034    0.27981971
     atom   47 type  2   force =     0.00000000   -0.00000115    0.27981882
     atom   48 type  2   force =    -0.00000078   -0.00000045    0.27981855
     The ionic contribution  to forces
     atom    1 type  1   force =     0.00001333   -0.00000096   -0.00000690
     atom    2 type  1   force =    -0.00000152    0.00004921   -0.00000797
     atom    3 type  1   force =     0.00002361   -0.00000079   -0.00000677
     atom    4 type  1   force =     0.00003007   -0.00000292   -0.00000797
     atom    5 type  1   force =    -0.00001546   -0.00004170   -0.00000591
     atom    6 type  1   force =    -0.00003248    0.00002323   -0.00000591
     atom    7 type  1   force =    -0.00002762   -0.00000066   -0.00000677
     atom    8 type  1   force =    -0.00000069   -0.00001811   -0.00000677
     atom    9 type  1   force =     0.00001232   -0.00003103   -0.00000591
     atom   10 type  1   force =     0.00001574    0.00001118   -0.00000585
     atom   11 type  1   force =    -0.00003050   -0.00000377   -0.00000591
     atom   12 type  1   force =    -0.00003925    0.00000061   -0.00000797
     atom   13 type  1   force =    -0.00001523    0.00000521   -0.00000690
     atom   14 type  1   force =     0.00002329    0.00002353   -0.00000591
     atom   15 type  1   force =     0.00002948    0.00000060   -0.00000591
     atom   16 type  1   force =     0.00001492    0.00000196   -0.00000690
     atom   17 type  2   force =    -0.00000017   -0.00000740   32.46323764
     atom   18 type  2   force =     0.00000564   -0.00000147   32.46321521
     atom   19 type  2   force =    -0.00000014    0.00000150   32.46322023
     atom   20 type  2   force =    -0.00000208    0.00000575   32.46323406
     atom   21 type  2   force =    -0.00001265   -0.00001072   32.46322673
     atom   22 type  2   force =    -0.00000713   -0.00000153   32.46321560
     atom   23 type  2   force =    -0.00000059   -0.00000599   32.46320728
     atom   24 type  2   force =    -0.00000833   -0.00000158   32.46321687
     atom   25 type  2   force =     0.00000481   -0.00000967   32.46323067
     atom   26 type  2   force =    -0.00000970    0.00000791   32.46322629
     atom   27 type  2   force =    -0.00000234    0.00000146   32.46322138
     atom   28 type  2   force =     0.00000756    0.00000008   32.46321694
     atom   29 type  2   force =     0.00001017   -0.00000916   32.46322592
     atom   30 type  2   force =     0.00000904    0.00000572   32.46322162
     atom   31 type  2   force =     0.00000522    0.00000763   32.46323134
     atom   32 type  2   force =     0.00000070    0.00000967   32.46323841
     atom   33 type  2   force =    -0.00000017   -0.00000632  -32.46323103
     atom   34 type  2   force =     0.00000600   -0.00000074  -32.46320874
     atom   35 type  2   force =     0.00000066    0.00000146  -32.46321377
     atom   36 type  2   force =    -0.00000115    0.00000521  -32.46322745
     atom   37 type  2   force =    -0.00001217   -0.00001044  -32.46321991
     atom   38 type  2   force =    -0.00000749   -0.00000081  -32.46320914
     atom   39 type  2   force =    -0.00000059   -0.00000599  -32.46320081
     atom   40 type  2   force =    -0.00000788   -0.00000226  -32.46321041
     atom   41 type  2   force =     0.00000481   -0.00000988  -32.46322378
     atom   42 type  2   force =    -0.00000988    0.00000801  -32.46321941
     atom   43 type  2   force =    -0.00000314    0.00000141  -32.46321492
     atom   44 type  2   force =     0.00000712   -0.00000059  -32.46321048
     atom   45 type  2   force =     0.00000969   -0.00000888  -32.46321910
     atom   46 type  2   force =     0.00000922    0.00000582  -32.46321473
     atom   47 type  2   force =     0.00000522    0.00000707  -32.46322451
     atom   48 type  2   force =    -0.00000023    0.00000913  -32.46323180
     The local contribution  to forces
     atom    1 type  1   force =     0.00004943    0.00001433    0.00000826
     atom    2 type  1   force =     0.00000000    0.00007788    0.00000953
     atom    3 type  1   force =     0.00004880   -0.00001286    0.00000858
     atom    4 type  1   force =     0.00006612    0.00001620    0.00000953
     atom    5 type  1   force =    -0.00002904    0.00000584    0.00000749
     atom    6 type  1   force =     0.00000285    0.00004602    0.00000749
     atom    7 type  1   force =    -0.00004880   -0.00001286    0.00000858
     atom    8 type  1   force =     0.00000000   -0.00000196    0.00000858
     atom    9 type  1   force =     0.00002904    0.00000584    0.00000749
     atom   10 type  1   force =     0.00006898    0.00004136    0.00000698
     atom   11 type  1   force =    -0.00003710   -0.00006573    0.00000749
     atom   12 type  1   force =    -0.00006612    0.00001620    0.00000953
     atom   13 type  1   force =    -0.00004943    0.00001433    0.00000826
     atom   14 type  1   force =    -0.00000285    0.00004602    0.00000749
     atom   15 type  1   force =     0.00003710   -0.00006573    0.00000749
     atom   16 type  1   force =     0.00006898   -0.00004253    0.00000826
     atom   17 type  2   force =     0.00000000    0.00002848  -32.19804684
     atom   18 type  2   force =     0.00000223    0.00002023  -32.19806231
     atom   19 type  2   force =     0.00001920   -0.00001143  -32.19806231
     atom   20 type  2   force =     0.00002961   -0.00001495  -32.19804684
     atom   21 type  2   force =     0.00002243    0.00001146  -32.19805069
     atom   22 type  2   force =    -0.00000223    0.00002023  -32.19806231
     atom   23 type  2   force =     0.00000000   -0.00000291  -32.19806846
     atom   24 type  2   force =     0.00001698   -0.00001022  -32.19806231
     atom   25 type  2   force =     0.00000366   -0.00000488  -32.19805195
     atom   26 type  2   force =    -0.00000476    0.00000210  -32.19805195
     atom   27 type  2   force =    -0.00001920   -0.00001143  -32.19806231
     atom   28 type  2   force =    -0.00001698   -0.00001022  -32.19806231
     atom   29 type  2   force =    -0.00002243    0.00001146  -32.19805069
     atom   30 type  2   force =     0.00000476    0.00000210  -32.19805195
     atom   31 type  2   force =     0.00000366   -0.00003093  -32.19805069
     atom   32 type  2   force =    -0.00002961   -0.00001495  -32.19804684
     atom   33 type  2   force =    -0.00000000    0.00002738   32.19803691
     atom   34 type  2   force =     0.00000180    0.00001947   32.19805258
     atom   35 type  2   force =     0.00001833   -0.00001142   32.19805258
     atom   36 type  2   force =     0.00002866   -0.00001440   32.19803691
     atom   37 type  2   force =     0.00002192    0.00001117   32.19804063
     atom   38 type  2   force =    -0.00000180    0.00001947   32.19805258
     atom   39 type  2   force =     0.00000000   -0.00000291   32.19805878
     atom   40 type  2   force =     0.00001653   -0.00000947   32.19805258
     atom   41 type  2   force =     0.00000366   -0.00000458   32.19804179
     atom   42 type  2   force =    -0.00000450    0.00000194   32.19804179
     atom   43 type  2   force =    -0.00001833   -0.00001142   32.19805258
     atom   44 type  2   force =    -0.00001653   -0.00000947   32.19805258
     atom   45 type  2   force =    -0.00002192    0.00001117   32.19804063
     atom   46 type  2   force =     0.00000450    0.00000194   32.19804179
     atom   47 type  2   force =     0.00000366   -0.00003034   32.19804063
     atom   48 type  2   force =    -0.00002866   -0.00001440   32.19803691
     The core correction contribution to forces
     atom    1 type  1   force =     0.00000005    0.00000019    0.00000050
     atom    2 type  1   force =    -0.00000000    0.00000009    0.00000050
     atom    3 type  1   force =    -0.00000019    0.00000036    0.00000050
     atom    4 type  1   force =     0.00000009   -0.00000068    0.00000050
     atom    5 type  1   force =     0.00000082   -0.00000017    0.00000050
     atom    6 type  1   force =     0.00000012   -0.00000006    0.00000050
     atom    7 type  1   force =     0.00000019    0.00000036    0.00000050
     atom    8 type  1   force =    -0.00000000   -0.00000041    0.00000050
     atom    9 type  1   force =    -0.00000082   -0.00000017    0.00000050
     atom   10 type  1   force =    -0.00000080   -0.00000048    0.00000049
     atom   11 type  1   force =     0.00000010    0.00000039    0.00000050
     atom   12 type  1   force =    -0.00000009   -0.00000068    0.00000050
     atom   13 type  1   force =    -0.00000005    0.00000019    0.00000050
     atom   14 type  1   force =    -0.00000012   -0.00000006    0.00000050
     atom   15 type  1   force =    -0.00000010    0.00000039    0.00000050
     atom   16 type  1   force =    -0.00000080   -0.00000022    0.00000050
     atom   17 type  2   force =     0.00000000    0.00000037    0.01437547
     atom   18 type  2   force =    -0.00000018    0.00000005    0.01437552
     atom   19 type  2   force =    -0.00000012    0.00000020    0.01437552
     atom   20 type  2   force =    -0.00000025   -0.00000010    0.01437547
     atom   21 type  2   force =     0.00000009    0.00000023    0.01437547
     atom   22 type  2   force =     0.00000018    0.00000005    0.01437552
     atom   23 type  2   force =     0.00000000    0.00000034    0.01437551
     atom   24 type  2   force =     0.00000007   -0.00000008    0.01437552
     atom   25 type  2   force =    -0.00000042   -0.00000003    0.01437553
     atom   26 type  2   force =     0.00000003    0.00000006    0.01437553
     atom   27 type  2   force =     0.00000012    0.00000020    0.01437552
     atom   28 type  2   force =    -0.00000007   -0.00000008    0.01437552
     atom   29 type  2   force =    -0.00000009    0.00000023    0.01437547
     atom   30 type  2   force =    -0.00000003    0.00000006    0.01437553
     atom   31 type  2   force =    -0.00000042    0.00000048    0.01437547
     atom   32 type  2   force =     0.00000025   -0.00000010    0.01437547
     atom   33 type  2   force =     0.00000000    0.00000037   -0.01437488
     atom   34 type  2   force =    -0.00000018    0.00000005   -0.01437493
     atom   35 type  2   force =    -0.00000012    0.00000019   -0.01437493
     atom   36 type  2   force =    -0.00000025   -0.00000010   -0.01437488
     atom   37 type  2   force =     0.00000009    0.00000023   -0.01437487
     atom   38 type  2   force =     0.00000018    0.00000005   -0.01437493
     atom   39 type  2   force =    -0.00000000    0.00000034   -0.01437492
     atom   40 type  2   force =     0.00000007   -0.00000007   -0.01437493
     atom   41 type  2   force =    -0.00000042   -0.00000003   -0.01437494
     atom   42 type  2   force =     0.00000004    0.00000006   -0.01437494
     atom   43 type  2   force =     0.00000012    0.00000019   -0.01437493
     atom   44 type  2   force =    -0.00000007   -0.00000007   -0.01437493
     atom   45 type  2   force =    -0.00000009    0.00000023   -0.01437487
     atom   46 type  2   force =    -0.00000004    0.00000006   -0.01437494
     atom   47 type  2   force =    -0.00000042    0.00000048   -0.01437487
     atom   48 type  2   force =     0.00000025   -0.00000010   -0.01437488
     The Hubbard contrib.    to forces
     atom    1 type  1   force =     0.00000000    0.00000000    0.00000000
     atom    2 type  1   force =     0.00000000    0.00000000    0.00000000
     atom    3 type  1   force =     0.00000000    0.00000000    0.00000000
     atom    4 type  1   force =     0.00000000    0.00000000    0.00000000
     atom    5 type  1   force =     0.00000000    0.00000000    0.00000000
     atom    6 type  1   force =     0.00000000    0.00000000    0.00000000
     atom    7 type  1   force =     0.00000000    0.00000000    0.00000000
     atom    8 type  1   force =     0.00000000    0.00000000    0.00000000
     atom    9 type  1   force =     0.00000000    0.00000000    0.00000000
     atom   10 type  1   force =     0.00000000    0.00000000    0.00000000
     atom   11 type  1   force =     0.00000000    0.00000000    0.00000000
     atom   12 type  1   force =     0.00000000    0.00000000    0.00000000
     atom   13 type  1   force =     0.00000000    0.00000000    0.00000000
     atom   14 type  1   force =     0.00000000    0.00000000    0.00000000
     atom   15 type  1   force =     0.00000000    0.00000000    0.00000000
     atom   16 type  1   force =     0.00000000    0.00000000    0.00000000
     atom   17 type  2   force =     0.00000000    0.00000000    0.00000000
     atom   18 type  2   force =     0.00000000    0.00000000    0.00000000
     atom   19 type  2   force =     0.00000000    0.00000000    0.00000000
     atom   20 type  2   force =     0.00000000    0.00000000    0.00000000
     atom   21 type  2   force =     0.00000000    0.00000000    0.00000000
     atom   22 type  2   force =     0.00000000    0.00000000    0.00000000
     atom   23 type  2   force =     0.00000000    0.00000000    0.00000000
     atom   24 type  2   force =     0.00000000    0.00000000    0.00000000
     atom   25 type  2   force =     0.00000000    0.00000000    0.00000000
     atom   26 type  2   force =     0.00000000    0.00000000    0.00000000
     atom   27 type  2   force =     0.00000000    0.00000000    0.00000000
     atom   28 type  2   force =     0.00000000    0.00000000    0.00000000
     atom   29 type  2   force =     0.00000000    0.00000000    0.00000000
     atom   30 type  2   force =     0.00000000    0.00000000    0.00000000
     atom   31 type  2   force =     0.00000000    0.00000000    0.00000000
     atom   32 type  2   force =     0.00000000    0.00000000    0.00000000
     atom   33 type  2   force =     0.00000000    0.00000000    0.00000000
     atom   34 type  2   force =     0.00000000    0.00000000    0.00000000
     atom   35 type  2   force =     0.00000000    0.00000000    0.00000000
     atom   36 type  2   force =     0.00000000    0.00000000    0.00000000
     atom   37 type  2   force =     0.00000000    0.00000000    0.00000000
     atom   38 type  2   force =     0.00000000    0.00000000    0.00000000
     atom   39 type  2   force =     0.00000000    0.00000000    0.00000000
     atom   40 type  2   force =     0.00000000    0.00000000    0.00000000
     atom   41 type  2   force =     0.00000000    0.00000000    0.00000000
     atom   42 type  2   force =     0.00000000    0.00000000    0.00000000
     atom   43 type  2   force =     0.00000000    0.00000000    0.00000000
     atom   44 type  2   force =     0.00000000    0.00000000    0.00000000
     atom   45 type  2   force =     0.00000000    0.00000000    0.00000000
     atom   46 type  2   force =     0.00000000    0.00000000    0.00000000
     atom   47 type  2   force =     0.00000000    0.00000000    0.00000000
     atom   48 type  2   force =     0.00000000    0.00000000    0.00000000
     The SCF correction term to forces
     atom    1 type  1   force =    -0.00004610   -0.00002661    0.00000321
     atom    2 type  1   force =     0.00000000   -0.00008977    0.00000293
     atom    3 type  1   force =    -0.00003691   -0.00002131    0.00000270
     atom    4 type  1   force =    -0.00007774    0.00004488    0.00000293
     atom    5 type  1   force =    -0.00003078    0.00003483    0.00000296
     atom    6 type  1   force =     0.00001477   -0.00004407    0.00000296
     atom    7 type  1   force =     0.00003691   -0.00002131    0.00000270
     atom    8 type  1   force =     0.00000000    0.00004261    0.00000270
     atom    9 type  1   force =     0.00003078    0.00003483    0.00000296
     atom   10 type  1   force =     0.00000000    0.00000000    0.00000328
     atom   11 type  1   force =     0.00004555    0.00000924    0.00000296
     atom   12 type  1   force =     0.00007774    0.00004488    0.00000293
     atom   13 type  1   force =     0.00004610   -0.00002661    0.00000321
     atom   14 type  1   force =    -0.00001477   -0.00004407    0.00000296
     atom   15 type  1   force =    -0.00004555    0.00000924    0.00000296
     atom   16 type  1   force =     0.00000000    0.00005323    0.00000321
     atom   17 type  2   force =     0.00000000   -0.00002667   -0.00002312
     atom   18 type  2   force =    -0.00000510   -0.00001981    0.00001241
     atom   19 type  2   force =    -0.00001971    0.00000548    0.00001241
     atom   20 type  2   force =    -0.00002309    0.00001333   -0.00002312
     atom   21 type  2   force =    -0.00001416   -0.00000818   -0.00001031
     atom   22 type  2   force =     0.00000510   -0.00001981    0.00001241
     atom   23 type  2   force =     0.00000000    0.00000000    0.00002958
     atom   24 type  2   force =    -0.00001460    0.00001432    0.00001241
     atom   25 type  2   force =    -0.00000000    0.00001368   -0.00000451
     atom   26 type  2   force =     0.00001185   -0.00000684   -0.00000451
     atom   27 type  2   force =     0.00001971    0.00000548    0.00001241
     atom   28 type  2   force =     0.00001460    0.00001432    0.00001241
     atom   29 type  2   force =     0.00001416   -0.00000818   -0.00001031
     atom   30 type  2   force =    -0.00001185   -0.00000684   -0.00000451
     atom   31 type  2   force =    -0.00000000    0.00001635   -0.00001031
     atom   32 type  2   force =     0.00002309    0.00001333   -0.00002312
     atom   33 type  2   force =     0.00000000   -0.00002661    0.00002411
     atom   34 type  2   force =    -0.00000506   -0.00001975   -0.00001145
     atom   35 type  2   force =    -0.00001963    0.00000549   -0.00001145
     atom   36 type  2   force =    -0.00002304    0.00001330    0.00002411
     atom   37 type  2   force =    -0.00001414   -0.00000816    0.00001124
     atom   38 type  2   force =     0.00000506   -0.00001975   -0.00001145
     atom   39 type  2   force =     0.00000000    0.00000000   -0.00002868
     atom   40 type  2   force =    -0.00001457    0.00001425   -0.00001145
     atom   41 type  2   force =    -0.00000000    0.00001362    0.00000548
     atom   42 type  2   force =     0.00001180   -0.00000681    0.00000548
     atom   43 type  2   force =     0.00001963    0.00000549   -0.00001145
     atom   44 type  2   force =     0.00001457    0.00001425   -0.00001145
     atom   45 type  2   force =     0.00001414   -0.00000816    0.00001124
     atom   46 type  2   force =    -0.00001180   -0.00000681    0.00000548
     atom   47 type  2   force =    -0.00000000    0.00001632    0.00001124
     atom   48 type  2   force =     0.00002304    0.00001330    0.00002411

     Total force =     0.001564     Total SCF correction =     0.000266
     SCF correction compared to forces is large: reduce conv_thr to get better values


     Computing stress (Cartesian axis) and pressure


     negative rho (up, down):  2.808E-03 0.000E+00
          total   stress  (Ry/bohr**3)                   (kbar)     P=       -1.83
  -0.00001741   0.00000000   0.00000000           -2.56        0.00        0.00
   0.00000000  -0.00001741  -0.00000000            0.00       -2.56       -0.00
   0.00000000  -0.00000000  -0.00000245            0.00       -0.00       -0.36

     kinetic stress (kbar)   4874.66      0.00      0.00
                                0.00   4874.66      0.00
                                0.00      0.00   4938.10

     local   stress (kbar)-114766.31     -0.00      0.00
                               -0.00-114766.32     -0.00
                                0.00     -0.00 112003.64

     nonloc. stress (kbar)   5137.91      0.00      0.00
                                0.00   5137.91     -0.00
                                0.00     -0.00   5152.94

     hartree stress (kbar)  56066.92     -0.00     -0.00
                               -0.00  56066.92      0.00
                               -0.00      0.00 -53308.93

     exc-cor stress (kbar)    367.14      0.00     -0.00
                                0.00    367.14      0.00
                               -0.00      0.00    366.16

     corecor stress (kbar)  -1910.16     -0.00     -0.00
                               -0.00  -1910.16     -0.00
                               -0.00     -0.00  -1912.20

     ewald   stress (kbar)  50227.28     -0.00     -0.00
                               -0.00  50227.28      0.00
                               -0.00      0.00 -67240.06

     hubbard stress (kbar)      0.00      0.00      0.00
                                0.00      0.00      0.00
                                0.00      0.00      0.00

     DFT-D   stress (kbar)      0.00      0.00      0.00
                                0.00      0.00      0.00
                                0.00      0.00      0.00

     XDM     stress (kbar)      0.00      0.00      0.00
                                0.00      0.00      0.00
                                0.00      0.00      0.00

     dft-nl  stress (kbar)      0.00      0.00      0.00
                                0.00      0.00      0.00
                                0.00      0.00      0.00

     TS-vdW  stress (kbar)      0.00      0.00      0.00
                                0.00      0.00      0.00
                                0.00      0.00      0.00

     MDB     stress (kbar)      0.00      0.00      0.00
                                0.00      0.00      0.00
                                0.00      0.00      0.00

     3D-RISM stress (kbar)      0.00      0.00      0.00
                                0.00      0.00      0.00
                                0.00      0.00      0.00

     Energy error            =      5.2E-06 Ry
     Gradient error          =      2.8E-04 Ry/Bohr

     number of scf cycles    =   2
     number of bfgs steps    =   1

     energy             old  =   -3003.7235904905 Ry
     energy             new  =   -3003.7235956677 Ry

     CASE: energy            _new < energy            _old

     new trust radius        =       0.0004931213 bohr
     new conv_thr            =            1.0E-10 Ry


ATOMIC_POSITIONS (angstrom)
Mo               1.5951566301        0.9209642091       11.1592501759
Mo               0.0000000000        3.6838575651       11.1592501340
Mo              -1.5951588860        6.4467534885       11.1592501508
Mo              -3.1903172427        9.2096487176       11.1592501340
Mo               4.7854729152        0.9209648025       11.1592501812
Mo               3.1903152866        3.6838581593       11.1592501812
Mo               1.5951588860        6.4467534885       11.1592501508
Mo               0.0000000000        9.2096490230       11.1592501508
Mo               7.9757900848        0.9209648025       11.1592501812
Mo               6.3806310000        3.6838590000       11.1592501370
Mo               4.7854743713        6.4467550382       11.1592501812
Mo               3.1903172427        9.2096487176       11.1592501340
Mo              11.1661063699        0.9209642091       11.1592501759
Mo               9.5709477134        3.6838581593       11.1592501812
Mo               7.9757886287        6.4467550382       11.1592501812
Mo               6.3806310000        9.2096495818       11.1592501759
S                0.0000000000        1.8419310070       12.7193364467
S               -1.5951577288        4.6048244739       12.7193350712
S               -3.1903154539        7.3677189979       12.7193350712
S               -4.7854731279       10.1306124965       12.7193364467
S                3.1903161254        1.8419300724       12.7193358123
S                1.5951577288        4.6048244739       12.7193350712
S                0.0000000000        7.3677190000       12.7193346444
S               -1.5951577251       10.1306125281       12.7193350712
S                6.3806310000        1.8419274381       12.7193373005
S                4.7854717814        4.6048252809       12.7193373005
S                3.1903154539        7.3677189979       12.7193350712
S                1.5951577251       10.1306125281       12.7193350712
S                9.5709468746        1.8419300724       12.7193358123
S                7.9757912186        4.6048252809       12.7193373005
S                6.3806310000        7.3677188551       12.7193358123
S                4.7854731279       10.1306124965       12.7193364467
S                0.0000000000        1.8419309652        9.5991713670
S               -1.5951577928        4.6048244494        9.5991727578
S               -3.1903155072        7.3677189548        9.5991727578
S               -4.7854731640       10.1306125174        9.5991713670
S                3.1903161445        1.8419300834        9.5991720490
S                1.5951577928        4.6048244494        9.5991727578
S                0.0000000000        7.3677190000        9.5991731999
S               -1.5951577144       10.1306125958        9.5991727578
S                6.3806310000        1.8419274845        9.5991705498
S                4.7854718215        4.6048252578        9.5991705498
S                3.1903155072        7.3677189548        9.5991727578
S                1.5951577144       10.1306125958        9.5991727578
S                9.5709468555        1.8419300834        9.5991720490
S                7.9757911785        4.6048252578        9.5991705498
S                6.3806310000        7.3677188332        9.5991720490
S                4.7854731640       10.1306125174        9.5991713670



     Writing config-only to output data dir /home/nihal/Desktop/Otptf/Trial_2.save/ :
     XML data file
     NEW-OLD atomic charge density approx. for the potential

     negative rho (up, down):  2.809E-03 0.000E+00

     total cpu time spent up to now is     3119.6 secs

     Self-consistent Calculation

     iteration #  1     ecut=    55.00 Ry     beta= 0.30
     Davidson diagonalization with overlap

---- Real-time Memory Report at c_bands before calling an iterative solver
          2463 MiB given to the printing process from OS
             0 MiB allocation reported by mallinfo(arena+hblkhd)
         12921 MiB available memory on the node where the printing process lives
------------------
     ethr =  1.00E-06,  avg # of iterations =  2.0

     Threshold (ethr) on eigenvalues was too large:
     Diagonalizing with lowered threshold

     Davidson diagonalization with overlap

---- Real-time Memory Report at c_bands before calling an iterative solver
          2463 MiB given to the printing process from OS
             0 MiB allocation reported by mallinfo(arena+hblkhd)
         13235 MiB available memory on the node where the printing process lives
------------------
     ethr =  5.94E-10,  avg # of iterations =  5.7

     negative rho (up, down):  2.809E-03 0.000E+00

     total cpu time spent up to now is     3320.1 secs

     total energy              =   -3003.72359839 Ry
     estimated scf accuracy    <       0.00000050 Ry

     iteration #  2     ecut=    55.00 Ry     beta= 0.30
     Davidson diagonalization with overlap

---- Real-time Memory Report at c_bands before calling an iterative solver
          2463 MiB given to the printing process from OS
             0 MiB allocation reported by mallinfo(arena+hblkhd)
         13088 MiB available memory on the node where the printing process lives
------------------
     ethr =  1.20E-10,  avg # of iterations =  8.0

     negative rho (up, down):  2.808E-03 0.000E+00

     total cpu time spent up to now is     3425.3 secs

     total energy              =   -3003.72359846 Ry
     estimated scf accuracy    <       0.00000090 Ry

     iteration #  3     ecut=    55.00 Ry     beta= 0.30
     Davidson diagonalization with overlap

---- Real-time Memory Report at c_bands before calling an iterative solver
          2463 MiB given to the printing process from OS
             0 MiB allocation reported by mallinfo(arena+hblkhd)
         12802 MiB available memory on the node where the printing process lives
------------------
     ethr =  1.20E-10,  avg # of iterations =  5.1

     negative rho (up, down):  2.808E-03 0.000E+00

     total cpu time spent up to now is     3506.2 secs

     total energy              =   -3003.72359853 Ry
     estimated scf accuracy    <       0.00000004 Ry

     iteration #  4     ecut=    55.00 Ry     beta= 0.30
     Davidson diagonalization with overlap

---- Real-time Memory Report at c_bands before calling an iterative solver
          2463 MiB given to the printing process from OS
             0 MiB allocation reported by mallinfo(arena+hblkhd)
         13041 MiB available memory on the node where the printing process lives
------------------
     ethr =  1.00E-11,  avg # of iterations =  5.4

     negative rho (up, down):  2.808E-03 0.000E+00

     total cpu time spent up to now is     3610.0 secs

     total energy              =   -3003.72359854 Ry
     estimated scf accuracy    <       0.00000006 Ry

     iteration #  5     ecut=    55.00 Ry     beta= 0.30
     Davidson diagonalization with overlap

---- Real-time Memory Report at c_bands before calling an iterative solver
          2463 MiB given to the printing process from OS
             0 MiB allocation reported by mallinfo(arena+hblkhd)
         12851 MiB available memory on the node where the printing process lives
------------------
     ethr =  1.00E-11,  avg # of iterations =  5.0

     negative rho (up, down):  2.808E-03 0.000E+00

     total cpu time spent up to now is     3683.5 secs

     total energy              =   -3003.72359854 Ry
     estimated scf accuracy    <       0.00000002 Ry

     iteration #  6     ecut=    55.00 Ry     beta= 0.30
     Davidson diagonalization with overlap

---- Real-time Memory Report at c_bands before calling an iterative solver
          2463 MiB given to the printing process from OS
             0 MiB allocation reported by mallinfo(arena+hblkhd)
         12711 MiB available memory on the node where the printing process lives
------------------
     ethr =  5.17E-12,  avg # of iterations =  5.9

     negative rho (up, down):  2.808E-03 0.000E+00

     total cpu time spent up to now is     3776.2 secs

     total energy              =   -3003.72359854 Ry
     estimated scf accuracy    <       0.00000002 Ry

     iteration #  7     ecut=    55.00 Ry     beta= 0.30
     Davidson diagonalization with overlap

---- Real-time Memory Report at c_bands before calling an iterative solver
          2463 MiB given to the printing process from OS
             0 MiB allocation reported by mallinfo(arena+hblkhd)
         12987 MiB available memory on the node where the printing process lives
------------------
     ethr =  5.17E-12,  avg # of iterations =  2.3

     negative rho (up, down):  2.808E-03 0.000E+00

     total cpu time spent up to now is     3843.9 secs

     total energy              =   -3003.72359854 Ry
     estimated scf accuracy    <       0.00000001 Ry

     iteration #  8     ecut=    55.00 Ry     beta= 0.30
     Davidson diagonalization with overlap

---- Real-time Memory Report at c_bands before calling an iterative solver
          2463 MiB given to the printing process from OS
             0 MiB allocation reported by mallinfo(arena+hblkhd)
         12615 MiB available memory on the node where the printing process lives
------------------
     ethr =  3.07E-12,  avg # of iterations =  6.0

     negative rho (up, down):  2.808E-03 0.000E+00

     total cpu time spent up to now is     3934.4 secs

     total energy              =   -3003.72359854 Ry
     estimated scf accuracy    <       0.00000001 Ry

     iteration #  9     ecut=    55.00 Ry     beta= 0.30
     Davidson diagonalization with overlap

---- Real-time Memory Report at c_bands before calling an iterative solver
          2463 MiB given to the printing process from OS
             0 MiB allocation reported by mallinfo(arena+hblkhd)
         12635 MiB available memory on the node where the printing process lives
------------------
     ethr =  2.52E-12,  avg # of iterations =  5.0

     negative rho (up, down):  2.808E-03 0.000E+00

     total cpu time spent up to now is     4008.9 secs

     total energy              =   -3003.72359854 Ry
     estimated scf accuracy    <          5.6E-10 Ry

     iteration # 10     ecut=    55.00 Ry     beta= 0.30
     Davidson diagonalization with overlap

---- Real-time Memory Report at c_bands before calling an iterative solver
          2463 MiB given to the printing process from OS
             0 MiB allocation reported by mallinfo(arena+hblkhd)
         12549 MiB available memory on the node where the printing process lives
------------------
     ethr =  1.34E-13,  avg # of iterations =  5.0

     negative rho (up, down):  2.808E-03 0.000E+00

     total cpu time spent up to now is     4099.8 secs

     total energy              =   -3003.72359854 Ry
     estimated scf accuracy    <          1.9E-10 Ry

     iteration # 11     ecut=    55.00 Ry     beta= 0.30
     Davidson diagonalization with overlap

---- Real-time Memory Report at c_bands before calling an iterative solver
          2463 MiB given to the printing process from OS
             0 MiB allocation reported by mallinfo(arena+hblkhd)
         12571 MiB available memory on the node where the printing process lives
------------------
     ethr =  1.00E-13,  avg # of iterations =  2.3

     negative rho (up, down):  2.808E-03 0.000E+00

     total cpu time spent up to now is     4168.7 secs

     End of self-consistent calculation

          k = 0.0000 0.0000 0.0000 ( 98419 PWs)   bands (ev):

   -60.2546 -60.2366 -60.2366 -60.2366 -60.2365 -60.2365 -60.2365 -60.2185
   -60.2185 -60.2185 -60.2184 -60.2184 -60.2184 -60.2184 -60.2184 -60.2184
   -34.5463 -34.5463 -34.5463 -34.4800 -34.4800 -34.4800 -34.4800 -34.4800
   -34.4800 -34.3815 -34.3684 -34.3684 -34.3684 -34.3684 -34.3684 -34.3684
   -34.3453 -34.3453 -34.3453 -34.3453 -34.3452 -34.3452 -34.3377 -34.3377
   -34.3377 -34.3377 -34.3377 -34.3377 -34.3088 -34.3088 -34.3088 -34.3088
   -34.3088 -34.3088 -34.3087 -34.3087 -34.3087 -34.2690 -34.2690 -34.2690
   -34.2274 -34.2274 -34.2274 -34.2274 -34.2274 -34.2274 -34.1854 -34.1854
   -13.4150 -12.6013 -12.6013 -12.6013 -12.6013 -12.6013 -12.6013 -12.1074
   -11.7766 -11.7766 -11.7766 -11.7766 -11.7766 -11.7765 -11.6012 -11.6012
   -11.6012 -11.6012 -11.6012 -11.6012 -11.5743 -11.5743 -11.5743 -11.3775
   -11.3775 -11.3775 -11.3564 -11.3564 -11.3564 -11.3564 -11.3563 -11.3563
    -5.0851  -5.0850  -5.0850  -4.9329  -4.4332  -4.4332  -4.4332  -4.4332
    -4.4332  -4.4332  -4.3193  -4.3192  -4.3192  -4.3192  -4.3192  -4.3192
    -4.2383  -4.2383  -4.2383  -4.2382  -4.2382  -4.2382  -4.0960  -4.0960
    -4.0960  -3.3962  -3.3962  -3.3962  -3.1560  -3.1560  -3.1560  -3.1560
    -3.1560  -3.1560  -2.9492  -2.9492  -2.9492  -2.9492  -2.9492  -2.9491
    -2.8976  -2.8976  -2.8976  -2.8976  -2.8976  -2.8976  -2.5551  -2.5551
    -2.5551  -2.5551  -2.5551  -2.5551  -2.5124  -2.5124  -2.5123  -2.2463
    -2.2463  -2.2463  -2.2463  -2.2463  -2.2463  -1.9725  -1.9725  -1.8394
    -1.8394  -1.8394  -1.8394  -1.8394  -1.8393  -1.1976  -1.1976  -1.1976
    -1.1573  -1.1573  -1.1573  -1.1573  -1.1573  -1.1573  -1.0967  -0.9680
    -0.9680  -0.9680  -0.9680  -0.9680  -0.9680  -0.8717  -0.8717  -0.6593
    -0.6593  -0.6593  -0.6593  -0.6593  -0.6593  -0.3490  -0.3490  -0.3490
    -0.0555  -0.0555  -0.0555  -0.0554  -0.0554  -0.0554   0.0248   0.0248
     0.0248   0.1237   0.1237   0.1237   0.1237   0.1237   0.1237   0.6716

     occupation numbers 
     1.0000   1.0000   1.0000   1.0000   1.0000   1.0000   1.0000   1.0000
     1.0000   1.0000   1.0000   1.0000   1.0000   1.0000   1.0000   1.0000
     1.0000   1.0000   1.0000   1.0000   1.0000   1.0000   1.0000   1.0000
     1.0000   1.0000   1.0000   1.0000   1.0000   1.0000   1.0000   1.0000
     1.0000   1.0000   1.0000   1.0000   1.0000   1.0000   1.0000   1.0000
     1.0000   1.0000   1.0000   1.0000   1.0000   1.0000   1.0000   1.0000
     1.0000   1.0000   1.0000   1.0000   1.0000   1.0000   1.0000   1.0000
     1.0000   1.0000   1.0000   1.0000   1.0000   1.0000   1.0000   1.0000
     1.0000   1.0000   1.0000   1.0000   1.0000   1.0000   1.0000   1.0000
     1.0000   1.0000   1.0000   1.0000   1.0000   1.0000   1.0000   1.0000
     1.0000   1.0000   1.0000   1.0000   1.0000   1.0000   1.0000   1.0000
     1.0000   1.0000   1.0000   1.0000   1.0000   1.0000   1.0000   1.0000
     1.0000   1.0000   1.0000   1.0000   1.0000   1.0000   1.0000   1.0000
     1.0000   1.0000   1.0000   1.0000   1.0000   1.0000   1.0000   1.0000
     1.0000   1.0000   1.0000   1.0000   1.0000   1.0000   1.0000   1.0000
     1.0000   1.0000   1.0000   1.0000   1.0000   1.0000   1.0000   1.0000
     1.0000   1.0000   1.0000   1.0000   1.0000   1.0000   1.0000   1.0000
     1.0000   1.0000   1.0000   1.0000   1.0000   1.0000   1.0000   1.0000
     1.0000   1.0000   1.0000   1.0000   1.0000   1.0000   1.0000   1.0000
     1.0000   1.0000   1.0000   1.0000   1.0000   1.0000   1.0000   1.0000
     1.0000   1.0000   1.0000   1.0000   1.0000   1.0000   1.0000   1.0000
     1.0000   1.0000   1.0000   1.0000   1.0000   1.0000   1.0000   1.0000
     1.0000   1.0000   1.0000   1.0000   1.0000   1.0000   1.0000   1.0000
     1.0000   1.0000   1.0000   1.0000   1.0000   1.0000   1.0000   1.0000
     1.0000   1.0000   1.0000   1.0000   1.0000   1.0000   1.0000   1.0000
     1.0000   1.0000   1.0000   1.0000   1.0000   1.0000   1.0000   1.0000

          k = 0.0000 0.1925 0.0000 ( 98305 PWs)   bands (ev):

   -60.2540 -60.2412 -60.2386 -60.2386 -60.2339 -60.2339 -60.2319 -60.2211
   -60.2211 -60.2191 -60.2185 -60.2184 -60.2184 -60.2184 -60.2164 -60.2164
   -34.5429 -34.5429 -34.5403 -34.4863 -34.4863 -34.4838 -34.4838 -34.4715
   -34.4715 -34.4149 -34.3928 -34.3928 -34.3803 -34.3588 -34.3588 -34.3547
   -34.3493 -34.3493 -34.3466 -34.3466 -34.3399 -34.3399 -34.3358 -34.3313
   -34.3312 -34.3215 -34.3142 -34.3141 -34.3138 -34.3138 -34.3100 -34.3088
   -34.3088 -34.3087 -34.3087 -34.3047 -34.3047 -34.2726 -34.2726 -34.2676
   -34.2382 -34.2355 -34.2355 -34.2242 -34.2242 -34.2165 -34.1917 -34.1868
   -13.3895 -12.8265 -12.7007 -12.7007 -12.4684 -12.4684 -12.3627 -12.0969
   -11.8675 -11.8164 -11.8164 -11.7631 -11.7631 -11.7228 -11.7228 -11.6811
   -11.6152 -11.5994 -11.5994 -11.5761 -11.5761 -11.4725 -11.4725 -11.4271
   -11.4271 -11.3926 -11.3761 -11.3761 -11.3578 -11.3578 -11.2993 -11.2993
    -5.0496  -5.0496  -5.0444  -4.9033  -4.4879  -4.4879  -4.4537  -4.4537
    -4.4448  -4.4448  -4.3908  -4.3827  -4.3757  -4.3757  -4.3283  -4.3283
    -4.3235  -4.3235  -4.2296  -4.2296  -4.1066  -4.1066  -4.0548  -3.9754
    -3.9754  -3.3821  -3.3821  -3.3760  -3.2242  -3.2098  -3.2004  -3.2004
    -3.0877  -3.0877  -3.0535  -3.0535  -3.0330  -3.0330  -3.0077  -3.0077
    -2.9884  -2.9884  -2.9756  -2.7325  -2.7325  -2.6182  -2.6182  -2.5736
    -2.5492  -2.5492  -2.5114  -2.5114  -2.4921  -2.4698  -2.4698  -2.4569
    -2.4569  -2.0740  -2.0740  -2.0320  -2.0319  -2.0248  -2.0248  -1.9457
    -1.9195  -1.9195  -1.8303  -1.8303  -1.6290  -1.3731  -1.2999  -1.2731
    -1.2731  -1.1879  -1.1878  -1.1829  -1.1464  -1.1464  -1.0784  -1.0784
    -0.9886  -0.9886  -0.9406  -0.9141  -0.8135  -0.8025  -0.8025  -0.7051
    -0.6765  -0.6765  -0.5229  -0.5229  -0.5158  -0.5110  -0.5110  -0.3739
    -0.2327  -0.1506  -0.1506  -0.0229  -0.0076  -0.0076   0.0462   0.0462
     0.0822   0.0822   0.1306   0.1306   0.1693   0.2853   0.2853   0.6595

     occupation numbers 
     1.0000   1.0000   1.0000   1.0000   1.0000   1.0000   1.0000   1.0000
     1.0000   1.0000   1.0000   1.0000   1.0000   1.0000   1.0000   1.0000
     1.0000   1.0000   1.0000   1.0000   1.0000   1.0000   1.0000   1.0000
     1.0000   1.0000   1.0000   1.0000   1.0000   1.0000   1.0000   1.0000
     1.0000   1.0000   1.0000   1.0000   1.0000   1.0000   1.0000   1.0000
     1.0000   1.0000   1.0000   1.0000   1.0000   1.0000   1.0000   1.0000
     1.0000   1.0000   1.0000   1.0000   1.0000   1.0000   1.0000   1.0000
     1.0000   1.0000   1.0000   1.0000   1.0000   1.0000   1.0000   1.0000
     1.0000   1.0000   1.0000   1.0000   1.0000   1.0000   1.0000   1.0000
     1.0000   1.0000   1.0000   1.0000   1.0000   1.0000   1.0000   1.0000
     1.0000   1.0000   1.0000   1.0000   1.0000   1.0000   1.0000   1.0000
     1.0000   1.0000   1.0000   1.0000   1.0000   1.0000   1.0000   1.0000
     1.0000   1.0000   1.0000   1.0000   1.0000   1.0000   1.0000   1.0000
     1.0000   1.0000   1.0000   1.0000   1.0000   1.0000   1.0000   1.0000
     1.0000   1.0000   1.0000   1.0000   1.0000   1.0000   1.0000   1.0000
     1.0000   1.0000   1.0000   1.0000   1.0000   1.0000   1.0000   1.0000
     1.0000   1.0000   1.0000   1.0000   1.0000   1.0000   1.0000   1.0000
     1.0000   1.0000   1.0000   1.0000   1.0000   1.0000   1.0000   1.0000
     1.0000   1.0000   1.0000   1.0000   1.0000   1.0000   1.0000   1.0000
     1.0000   1.0000   1.0000   1.0000   1.0000   1.0000   1.0000   1.0000
     1.0000   1.0000   1.0000   1.0000   1.0000   1.0000   1.0000   1.0000
     1.0000   1.0000   1.0000   1.0000   1.0000   1.0000   1.0000   1.0000
     1.0000   1.0000   1.0000   1.0000   1.0000   1.0000   1.0000   1.0000
     1.0000   1.0000   1.0000   1.0000   1.0000   1.0000   1.0000   1.0000
     1.0000   1.0000   1.0000   1.0000   1.0000   1.0000   1.0000   1.0000
     1.0000   1.0000   1.0000   1.0000   1.0000   1.0000   1.0000   1.0000

          k = 0.0000 0.3849 0.0000 ( 98343 PWs)   bands (ev):

   -60.2522 -60.2456 -60.2399 -60.2399 -60.2308 -60.2308 -60.2275 -60.2242
   -60.2242 -60.2209 -60.2185 -60.2184 -60.2184 -60.2184 -60.2151 -60.2151
   -34.5332 -34.5331 -34.5227 -34.5013 -34.5013 -34.4845 -34.4845 -34.4579
   -34.4578 -34.4578 -34.4172 -34.4172 -34.3767 -34.3737 -34.3737 -34.3634
   -34.3519 -34.3519 -34.3337 -34.3337 -34.3309 -34.3309 -34.3270 -34.3204
   -34.3204 -34.3158 -34.3158 -34.3137 -34.3088 -34.3088 -34.3088 -34.3088
   -34.3021 -34.3021 -34.2896 -34.2896 -34.2828 -34.2828 -34.2775 -34.2635
   -34.2490 -34.2490 -34.2483 -34.2242 -34.2242 -34.2102 -34.2064 -34.1910
   -13.3138 -13.0263 -12.7622 -12.7621 -12.3085 -12.3085 -12.1258 -12.0660
   -11.9487 -11.9441 -11.9441 -11.8408 -11.8408 -11.7318 -11.6574 -11.6574
   -11.5946 -11.5946 -11.5877 -11.5811 -11.5811 -11.5048 -11.5048 -11.4362
   -11.3895 -11.3895 -11.3722 -11.3722 -11.3617 -11.3617 -11.2620 -11.2620
    -4.9481  -4.9481  -4.9291  -4.8174  -4.6271  -4.6271  -4.5760  -4.5760
    -4.5619  -4.5269  -4.4382  -4.4382  -4.3571  -4.3571  -4.3307  -4.3307
    -4.3021  -4.3021  -4.2055  -4.2055  -4.1347  -4.1347  -3.9344  -3.6878
    -3.6878  -3.4972  -3.3398  -3.3398  -3.3249  -3.2384  -3.2163  -3.2163
    -3.1984  -3.1984  -3.1648  -3.1648  -3.1514  -3.1513  -3.0680  -3.0680
    -3.0276  -3.0276  -2.7166  -2.6147  -2.6147  -2.5709  -2.5709  -2.5501
    -2.5501  -2.5347  -2.5347  -2.5120  -2.5120  -2.4319  -2.3606  -2.3606
    -2.2911  -2.2911  -2.2464  -2.1986  -2.1983  -1.9387  -1.9387  -1.8667
    -1.7040  -1.7040  -1.6024  -1.5807  -1.5807  -1.5718  -1.4128  -1.3664
    -1.3664  -1.2944  -1.2944  -1.1568  -1.1568  -1.1379  -1.1133  -1.1133
    -1.0414  -1.0413  -1.0328  -0.9517  -0.8558  -0.8558  -0.7405  -0.6820
    -0.6820  -0.6376  -0.6376  -0.5206  -0.4490  -0.4231  -0.3515  -0.3514
    -0.3052  -0.1903  -0.1903  -0.1398  -0.1002  -0.1002   0.1190   0.1190
     0.1404   0.1405   0.1461   0.1461   0.3774   0.4333   0.4333   0.6172

     occupation numbers 
     1.0000   1.0000   1.0000   1.0000   1.0000   1.0000   1.0000   1.0000
     1.0000   1.0000   1.0000   1.0000   1.0000   1.0000   1.0000   1.0000
     1.0000   1.0000   1.0000   1.0000   1.0000   1.0000   1.0000   1.0000
     1.0000   1.0000   1.0000   1.0000   1.0000   1.0000   1.0000   1.0000
     1.0000   1.0000   1.0000   1.0000   1.0000   1.0000   1.0000   1.0000
     1.0000   1.0000   1.0000   1.0000   1.0000   1.0000   1.0000   1.0000
     1.0000   1.0000   1.0000   1.0000   1.0000   1.0000   1.0000   1.0000
     1.0000   1.0000   1.0000   1.0000   1.0000   1.0000   1.0000   1.0000
     1.0000   1.0000   1.0000   1.0000   1.0000   1.0000   1.0000   1.0000
     1.0000   1.0000   1.0000   1.0000   1.0000   1.0000   1.0000   1.0000
     1.0000   1.0000   1.0000   1.0000   1.0000   1.0000   1.0000   1.0000
     1.0000   1.0000   1.0000   1.0000   1.0000   1.0000   1.0000   1.0000
     1.0000   1.0000   1.0000   1.0000   1.0000   1.0000   1.0000   1.0000
     1.0000   1.0000   1.0000   1.0000   1.0000   1.0000   1.0000   1.0000
     1.0000   1.0000   1.0000   1.0000   1.0000   1.0000   1.0000   1.0000
     1.0000   1.0000   1.0000   1.0000   1.0000   1.0000   1.0000   1.0000
     1.0000   1.0000   1.0000   1.0000   1.0000   1.0000   1.0000   1.0000
     1.0000   1.0000   1.0000   1.0000   1.0000   1.0000   1.0000   1.0000
     1.0000   1.0000   1.0000   1.0000   1.0000   1.0000   1.0000   1.0000
     1.0000   1.0000   1.0000   1.0000   1.0000   1.0000   1.0000   1.0000
     1.0000   1.0000   1.0000   1.0000   1.0000   1.0000   1.0000   1.0000
     1.0000   1.0000   1.0000   1.0000   1.0000   1.0000   1.0000   1.0000
     1.0000   1.0000   1.0000   1.0000   1.0000   1.0000   1.0000   1.0000
     1.0000   1.0000   1.0000   1.0000   1.0000   1.0000   1.0000   1.0000
     1.0000   1.0000   1.0000   1.0000   1.0000   1.0000   1.0000   1.0000
     1.0000   1.0000   1.0000   1.0000   1.0000   1.0000   1.0000   1.0000

          k = 0.0000-0.5774 0.0000 ( 98234 PWs)   bands (ev):

   -60.2493 -60.2493 -60.2403 -60.2403 -60.2275 -60.2275 -60.2275 -60.2275
   -60.2238 -60.2237 -60.2185 -60.2184 -60.2184 -60.2184 -60.2147 -60.2147
   -34.5184 -34.5184 -34.5184 -34.5184 -34.4947 -34.4947 -34.4843 -34.4843
   -34.4394 -34.4394 -34.4394 -34.4394 -34.3792 -34.3792 -34.3709 -34.3709
   -34.3528 -34.3528 -34.3271 -34.3270 -34.3270 -34.3270 -34.3250 -34.3250
   -34.3195 -34.3195 -34.3088 -34.3088 -34.3088 -34.3088 -34.3012 -34.3012
   -34.2981 -34.2981 -34.2981 -34.2981 -34.2674 -34.2674 -34.2674 -34.2674
   -34.2569 -34.2569 -34.2395 -34.2395 -34.2247 -34.2247 -34.1977 -34.1977
   -13.1911 -13.1911 -12.7829 -12.7829 -12.1301 -12.1301 -12.1301 -12.1301
   -12.0159 -12.0159 -11.9087 -11.9087 -11.8491 -11.8491 -11.5879 -11.5879
   -11.5879 -11.5879 -11.5833 -11.5833 -11.5833 -11.5833 -11.5036 -11.5035
   -11.3670 -11.3670 -11.3669 -11.3669 -11.3608 -11.3608 -11.2490 -11.2490
    -4.7968  -4.7968  -4.7968  -4.7968  -4.7581  -4.7581  -4.6850  -4.6850
    -4.6209  -4.6209  -4.3996  -4.3996  -4.3996  -4.3996  -4.3339  -4.3339
    -4.2646  -4.2646  -4.1711  -4.1711  -4.1711  -4.1711  -3.7440  -3.7440
    -3.4224  -3.4224  -3.4224  -3.4224  -3.2695  -3.2695  -3.2685  -3.2685
    -3.2684  -3.2684  -3.2273  -3.2273  -3.1480  -3.1480  -3.1480  -3.1480
    -3.0037  -3.0037  -2.5645  -2.5645  -2.5199  -2.5199  -2.5199  -2.5199
    -2.5096  -2.5096  -2.5096  -2.5096  -2.4860  -2.4860  -2.4406  -2.4406
    -2.3333  -2.3332  -2.3177  -2.3177  -2.0143  -2.0143  -1.9212  -1.9212
    -1.7398  -1.7397  -1.4017  -1.4017  -1.3552  -1.3552  -1.2937  -1.2937
    -1.2937  -1.2937  -1.2744  -1.2744  -1.2743  -1.2743  -1.2071  -1.2071
    -1.1045  -1.1045  -1.1045  -1.1045  -1.0610  -1.0610  -0.6271  -0.6271
    -0.6271  -0.6271  -0.5729  -0.5729  -0.4199  -0.4199  -0.2761  -0.2761
    -0.2593  -0.2593  -0.1634  -0.1634  -0.1634  -0.1634   0.1450   0.1451
     0.1561   0.1561   0.1562   0.1562   0.4964   0.4964   0.5284   0.5284

     occupation numbers 
     1.0000   1.0000   1.0000   1.0000   1.0000   1.0000   1.0000   1.0000
     1.0000   1.0000   1.0000   1.0000   1.0000   1.0000   1.0000   1.0000
     1.0000   1.0000   1.0000   1.0000   1.0000   1.0000   1.0000   1.0000
     1.0000   1.0000   1.0000   1.0000   1.0000   1.0000   1.0000   1.0000
     1.0000   1.0000   1.0000   1.0000   1.0000   1.0000   1.0000   1.0000
     1.0000   1.0000   1.0000   1.0000   1.0000   1.0000   1.0000   1.0000
     1.0000   1.0000   1.0000   1.0000   1.0000   1.0000   1.0000   1.0000
     1.0000   1.0000   1.0000   1.0000   1.0000   1.0000   1.0000   1.0000
     1.0000   1.0000   1.0000   1.0000   1.0000   1.0000   1.0000   1.0000
     1.0000   1.0000   1.0000   1.0000   1.0000   1.0000   1.0000   1.0000
     1.0000   1.0000   1.0000   1.0000   1.0000   1.0000   1.0000   1.0000
     1.0000   1.0000   1.0000   1.0000   1.0000   1.0000   1.0000   1.0000
     1.0000   1.0000   1.0000   1.0000   1.0000   1.0000   1.0000   1.0000
     1.0000   1.0000   1.0000   1.0000   1.0000   1.0000   1.0000   1.0000
     1.0000   1.0000   1.0000   1.0000   1.0000   1.0000   1.0000   1.0000
     1.0000   1.0000   1.0000   1.0000   1.0000   1.0000   1.0000   1.0000
     1.0000   1.0000   1.0000   1.0000   1.0000   1.0000   1.0000   1.0000
     1.0000   1.0000   1.0000   1.0000   1.0000   1.0000   1.0000   1.0000
     1.0000   1.0000   1.0000   1.0000   1.0000   1.0000   1.0000   1.0000
     1.0000   1.0000   1.0000   1.0000   1.0000   1.0000   1.0000   1.0000
     1.0000   1.0000   1.0000   1.0000   1.0000   1.0000   1.0000   1.0000
     1.0000   1.0000   1.0000   1.0000   1.0000   1.0000   1.0000   1.0000
     1.0000   1.0000   1.0000   1.0000   1.0000   1.0000   1.0000   1.0000
     1.0000   1.0000   1.0000   1.0000   1.0000   1.0000   1.0000   1.0000
     1.0000   1.0000   1.0000   1.0000   1.0000   1.0000   1.0000   1.0000
     1.0000   1.0000   1.0000   1.0000   1.0000   1.0000   1.0000   1.0000

          k = 0.1667 0.2887 0.0000 ( 98339 PWs)   bands (ev):

   -60.2528 -60.2431 -60.2431 -60.2353 -60.2353 -60.2294 -60.2294 -60.2244
   -60.2209 -60.2209 -60.2197 -60.2197 -60.2178 -60.2166 -60.2166 -60.2150
   -34.5387 -34.5312 -34.5312 -34.4961 -34.4961 -34.4825 -34.4825 -34.4764
   -34.4520 -34.4371 -34.4371 -34.3838 -34.3779 -34.3742 -34.3742 -34.3584
   -34.3584 -34.3442 -34.3442 -34.3428 -34.3428 -34.3308 -34.3308 -34.3207
   -34.3138 -34.3138 -34.3112 -34.3112 -34.3076 -34.3050 -34.3050 -34.3044
   -34.3043 -34.3018 -34.3016 -34.3016 -34.2936 -34.2844 -34.2697 -34.2697
   -34.2464 -34.2464 -34.2366 -34.2366 -34.2133 -34.2133 -34.2040 -34.1897
   -13.3389 -12.9135 -12.9135 -12.5417 -12.5417 -12.2300 -12.2300 -12.0762
   -11.9544 -11.9027 -11.9027 -11.7514 -11.7513 -11.7506 -11.7506 -11.6557
   -11.6557 -11.6278 -11.6278 -11.5416 -11.5076 -11.4791 -11.4791 -11.4255
   -11.4254 -11.4058 -11.4058 -11.3808 -11.3572 -11.3066 -11.3066 -11.2559
    -4.9839  -4.9722  -4.9722  -4.8454  -4.6015  -4.5444  -4.5444  -4.4970
    -4.4970  -4.4583  -4.4583  -4.4338  -4.4338  -4.4098  -4.4098  -4.3953
    -4.2812  -4.2812  -4.2168  -4.1792  -4.0231  -4.0231  -3.9815  -3.9815
    -3.6683  -3.3625  -3.3606  -3.3606  -3.3430  -3.3430  -3.2232  -3.2232
    -3.1655  -3.1655  -3.1427  -3.1426  -3.0856  -3.0856  -3.0753  -3.0326
    -2.8875  -2.8875  -2.8704  -2.8703  -2.7545  -2.6468  -2.5853  -2.5853
    -2.5175  -2.4792  -2.4792  -2.4676  -2.4676  -2.4114  -2.4114  -2.3414
    -2.1879  -2.1879  -2.1445  -2.1437  -2.1437  -2.1375  -2.1375  -1.8932
    -1.6840  -1.6736  -1.6736  -1.6114  -1.6114  -1.5160  -1.4691  -1.4691
    -1.3090  -1.2191  -1.2191  -1.1833  -1.1547  -1.1547  -1.1516  -1.1516
    -1.0034  -0.9073  -0.9073  -0.8691  -0.8691  -0.8358  -0.8335  -0.8335
    -0.6330  -0.5604  -0.5604  -0.5570  -0.4757  -0.4757  -0.4068  -0.4068
    -0.2559  -0.2559  -0.1042  -0.0734  -0.0734  -0.0024  -0.0024   0.0074
     0.0075   0.1856   0.2646   0.2646   0.2819   0.2819   0.4507   0.6324

     occupation numbers 
     1.0000   1.0000   1.0000   1.0000   1.0000   1.0000   1.0000   1.0000
     1.0000   1.0000   1.0000   1.0000   1.0000   1.0000   1.0000   1.0000
     1.0000   1.0000   1.0000   1.0000   1.0000   1.0000   1.0000   1.0000
     1.0000   1.0000   1.0000   1.0000   1.0000   1.0000   1.0000   1.0000
     1.0000   1.0000   1.0000   1.0000   1.0000   1.0000   1.0000   1.0000
     1.0000   1.0000   1.0000   1.0000   1.0000   1.0000   1.0000   1.0000
     1.0000   1.0000   1.0000   1.0000   1.0000   1.0000   1.0000   1.0000
     1.0000   1.0000   1.0000   1.0000   1.0000   1.0000   1.0000   1.0000
     1.0000   1.0000   1.0000   1.0000   1.0000   1.0000   1.0000   1.0000
     1.0000   1.0000   1.0000   1.0000   1.0000   1.0000   1.0000   1.0000
     1.0000   1.0000   1.0000   1.0000   1.0000   1.0000   1.0000   1.0000
     1.0000   1.0000   1.0000   1.0000   1.0000   1.0000   1.0000   1.0000
     1.0000   1.0000   1.0000   1.0000   1.0000   1.0000   1.0000   1.0000
     1.0000   1.0000   1.0000   1.0000   1.0000   1.0000   1.0000   1.0000
     1.0000   1.0000   1.0000   1.0000   1.0000   1.0000   1.0000   1.0000
     1.0000   1.0000   1.0000   1.0000   1.0000   1.0000   1.0000   1.0000
     1.0000   1.0000   1.0000   1.0000   1.0000   1.0000   1.0000   1.0000
     1.0000   1.0000   1.0000   1.0000   1.0000   1.0000   1.0000   1.0000
     1.0000   1.0000   1.0000   1.0000   1.0000   1.0000   1.0000   1.0000
     1.0000   1.0000   1.0000   1.0000   1.0000   1.0000   1.0000   1.0000
     1.0000   1.0000   1.0000   1.0000   1.0000   1.0000   1.0000   1.0000
     1.0000   1.0000   1.0000   1.0000   1.0000   1.0000   1.0000   1.0000
     1.0000   1.0000   1.0000   1.0000   1.0000   1.0000   1.0000   1.0000
     1.0000   1.0000   1.0000   1.0000   1.0000   1.0000   1.0000   1.0000
     1.0000   1.0000   1.0000   1.0000   1.0000   1.0000   1.0000   1.0000
     1.0000   1.0000   1.0000   1.0000   1.0000   1.0000   1.0000   1.0000

          k = 0.1667 0.4811 0.0000 ( 98346 PWs)   bands (ev):

   -60.2504 -60.2471 -60.2441 -60.2361 -60.2317 -60.2280 -60.2266 -60.2253
   -60.2237 -60.2220 -60.2206 -60.2202 -60.2173 -60.2169 -60.2156 -60.2142
   -34.5282 -34.5169 -34.5129 -34.5087 -34.5010 -34.4995 -34.4766 -34.4725
   -34.4685 -34.4570 -34.4285 -34.4021 -34.4010 -34.3732 -34.3666 -34.3631
   -34.3604 -34.3511 -34.3443 -34.3355 -34.3280 -34.3252 -34.3231 -34.3226
   -34.3194 -34.3159 -34.3132 -34.3123 -34.3065 -34.3056 -34.3030 -34.3019
   -34.3003 -34.2907 -34.2902 -34.2802 -34.2780 -34.2728 -34.2641 -34.2610
   -34.2605 -34.2561 -34.2532 -34.2386 -34.2277 -34.2127 -34.2034 -34.1954
   -13.2397 -13.0959 -12.9578 -12.5792 -12.3572 -12.1573 -12.0773 -12.0357
   -12.0020 -11.9770 -11.9206 -11.9139 -11.8037 -11.7658 -11.7268 -11.6941
   -11.6754 -11.5924 -11.5652 -11.5384 -11.5135 -11.4963 -11.4926 -11.4619
   -11.4218 -11.4154 -11.4152 -11.3378 -11.3327 -11.3201 -11.2794 -11.2328
    -4.8536  -4.8461  -4.8299  -4.7359  -4.6908  -4.6836  -4.6779  -4.6462
    -4.5891  -4.5502  -4.5167  -4.5031  -4.4935  -4.4623  -4.3457  -4.3288
    -4.2822  -4.2638  -4.2561  -4.0641  -4.0044  -3.9915  -3.8623  -3.7363
    -3.6362  -3.5280  -3.3467  -3.3184  -3.2843  -3.2828  -3.2574  -3.2478
    -3.2382  -3.2297  -3.1953  -3.1946  -3.1745  -3.1446  -3.1399  -3.1157
    -3.0756  -2.8285  -2.8067  -2.7431  -2.6047  -2.6025  -2.5369  -2.5352
    -2.5065  -2.4932  -2.4864  -2.4360  -2.4148  -2.4093  -2.3914  -2.3475
    -2.3179  -2.2860  -2.2836  -2.2518  -2.1543  -2.0980  -1.7965  -1.7914
    -1.7041  -1.6809  -1.6467  -1.5268  -1.4404  -1.4235  -1.3833  -1.3186
    -1.3061  -1.3038  -1.2689  -1.2573  -1.2519  -1.1761  -1.1705  -1.1663
    -1.0798  -1.0792  -1.0474  -0.9749  -0.9716  -0.9110  -0.8080  -0.8064
    -0.7690  -0.6519  -0.5112  -0.4589  -0.4214  -0.3662  -0.3329  -0.2966
    -0.2358  -0.1894  -0.1532  -0.1468  -0.1290  -0.0937  -0.0296   0.0260
     0.0286   0.2439   0.2711   0.3156   0.3872   0.4462   0.5668   0.5681

     occupation numbers 
     1.0000   1.0000   1.0000   1.0000   1.0000   1.0000   1.0000   1.0000
     1.0000   1.0000   1.0000   1.0000   1.0000   1.0000   1.0000   1.0000
     1.0000   1.0000   1.0000   1.0000   1.0000   1.0000   1.0000   1.0000
     1.0000   1.0000   1.0000   1.0000   1.0000   1.0000   1.0000   1.0000
     1.0000   1.0000   1.0000   1.0000   1.0000   1.0000   1.0000   1.0000
     1.0000   1.0000   1.0000   1.0000   1.0000   1.0000   1.0000   1.0000
     1.0000   1.0000   1.0000   1.0000   1.0000   1.0000   1.0000   1.0000
     1.0000   1.0000   1.0000   1.0000   1.0000   1.0000   1.0000   1.0000
     1.0000   1.0000   1.0000   1.0000   1.0000   1.0000   1.0000   1.0000
     1.0000   1.0000   1.0000   1.0000   1.0000   1.0000   1.0000   1.0000
     1.0000   1.0000   1.0000   1.0000   1.0000   1.0000   1.0000   1.0000
     1.0000   1.0000   1.0000   1.0000   1.0000   1.0000   1.0000   1.0000
     1.0000   1.0000   1.0000   1.0000   1.0000   1.0000   1.0000   1.0000
     1.0000   1.0000   1.0000   1.0000   1.0000   1.0000   1.0000   1.0000
     1.0000   1.0000   1.0000   1.0000   1.0000   1.0000   1.0000   1.0000
     1.0000   1.0000   1.0000   1.0000   1.0000   1.0000   1.0000   1.0000
     1.0000   1.0000   1.0000   1.0000   1.0000   1.0000   1.0000   1.0000
     1.0000   1.0000   1.0000   1.0000   1.0000   1.0000   1.0000   1.0000
     1.0000   1.0000   1.0000   1.0000   1.0000   1.0000   1.0000   1.0000
     1.0000   1.0000   1.0000   1.0000   1.0000   1.0000   1.0000   1.0000
     1.0000   1.0000   1.0000   1.0000   1.0000   1.0000   1.0000   1.0000
     1.0000   1.0000   1.0000   1.0000   1.0000   1.0000   1.0000   1.0000
     1.0000   1.0000   1.0000   1.0000   1.0000   1.0000   1.0000   1.0000
     1.0000   1.0000   1.0000   1.0000   1.0000   1.0000   1.0000   1.0000
     1.0000   1.0000   1.0000   1.0000   1.0000   1.0000   1.0000   1.0000
     1.0000   1.0000   1.0000   1.0000   1.0000   1.0000   1.0000   1.0000

          k = 0.3333 0.5774 0.0000 ( 98352 PWs)   bands (ev):

   -60.2477 -60.2477 -60.2477 -60.2320 -60.2320 -60.2320 -60.2230 -60.2230
   -60.2230 -60.2230 -60.2230 -60.2230 -60.2164 -60.2163 -60.2163 -60.2139
   -34.5169 -34.5169 -34.5169 -34.4910 -34.4910 -34.4909 -34.4909 -34.4909
   -34.4909 -34.4577 -34.4157 -34.3963 -34.3963 -34.3963 -34.3676 -34.3676
   -34.3676 -34.3362 -34.3362 -34.3362 -34.3256 -34.3256 -34.3256 -34.3179
   -34.3179 -34.3179 -34.3179 -34.3179 -34.3179 -34.3045 -34.3045 -34.3045
   -34.2997 -34.2704 -34.2704 -34.2704 -34.2704 -34.2704 -34.2704 -34.2553
   -34.2553 -34.2553 -34.2550 -34.2550 -34.2550 -34.2028 -34.2028 -34.2028
   -13.1194 -13.1194 -13.1194 -12.3737 -12.3737 -12.3737 -11.9866 -11.9866
   -11.9866 -11.8660 -11.8660 -11.8660 -11.8660 -11.8660 -11.8659 -11.6814
   -11.6814 -11.6814 -11.4821 -11.4820 -11.4820 -11.4820 -11.4820 -11.4820
   -11.4572 -11.4571 -11.4571 -11.3133 -11.3057 -11.3057 -11.3057 -11.2226
    -4.7208  -4.6948  -4.6948  -4.6948  -4.6938  -4.6938  -4.6938  -4.6938
    -4.6938  -4.6938  -4.6108  -4.6107  -4.6107  -4.3934  -4.3934  -4.3934
    -4.2544  -4.2544  -4.2544  -3.9084  -3.7973  -3.7973  -3.7973  -3.7973
    -3.7973  -3.7973  -3.3940  -3.2819  -3.2819  -3.2819  -3.2224  -3.2224
    -3.2224  -3.2224  -3.2224  -3.2224  -3.1645  -3.1645  -3.1645  -3.0028
    -3.0028  -3.0028  -2.8982  -2.5634  -2.5634  -2.5634  -2.5146  -2.5146
    -2.5146  -2.4660  -2.4660  -2.4660  -2.4556  -2.4556  -2.4556  -2.4556
    -2.4556  -2.4556  -2.2012  -2.0302  -2.0302  -2.0302  -1.7013  -1.7013
    -1.7013  -1.6744  -1.6744  -1.6744  -1.4809  -1.4061  -1.4061  -1.4061
    -1.3266  -1.3266  -1.3266  -1.2128  -1.2128  -1.2128  -0.9830  -0.9830
    -0.9830  -0.9830  -0.9830  -0.9830  -0.9592  -0.9592  -0.9592  -0.9592
    -0.9592  -0.9592  -0.3869  -0.3869  -0.3869  -0.3265  -0.3265  -0.3265
    -0.1320  -0.1320  -0.1320  -0.0988  -0.0988  -0.0988  -0.0988  -0.0988
    -0.0988   0.3229   0.3229   0.3229   0.4691   0.4691   0.4691   0.6254

     occupation numbers 
     1.0000   1.0000   1.0000   1.0000   1.0000   1.0000   1.0000   1.0000
     1.0000   1.0000   1.0000   1.0000   1.0000   1.0000   1.0000   1.0000
     1.0000   1.0000   1.0000   1.0000   1.0000   1.0000   1.0000   1.0000
     1.0000   1.0000   1.0000   1.0000   1.0000   1.0000   1.0000   1.0000
     1.0000   1.0000   1.0000   1.0000   1.0000   1.0000   1.0000   1.0000
     1.0000   1.0000   1.0000   1.0000   1.0000   1.0000   1.0000   1.0000
     1.0000   1.0000   1.0000   1.0000   1.0000   1.0000   1.0000   1.0000
     1.0000   1.0000   1.0000   1.0000   1.0000   1.0000   1.0000   1.0000
     1.0000   1.0000   1.0000   1.0000   1.0000   1.0000   1.0000   1.0000
     1.0000   1.0000   1.0000   1.0000   1.0000   1.0000   1.0000   1.0000
     1.0000   1.0000   1.0000   1.0000   1.0000   1.0000   1.0000   1.0000
     1.0000   1.0000   1.0000   1.0000   1.0000   1.0000   1.0000   1.0000
     1.0000   1.0000   1.0000   1.0000   1.0000   1.0000   1.0000   1.0000
     1.0000   1.0000   1.0000   1.0000   1.0000   1.0000   1.0000   1.0000
     1.0000   1.0000   1.0000   1.0000   1.0000   1.0000   1.0000   1.0000
     1.0000   1.0000   1.0000   1.0000   1.0000   1.0000   1.0000   1.0000
     1.0000   1.0000   1.0000   1.0000   1.0000   1.0000   1.0000   1.0000
     1.0000   1.0000   1.0000   1.0000   1.0000   1.0000   1.0000   1.0000
     1.0000   1.0000   1.0000   1.0000   1.0000   1.0000   1.0000   1.0000
     1.0000   1.0000   1.0000   1.0000   1.0000   1.0000   1.0000   1.0000
     1.0000   1.0000   1.0000   1.0000   1.0000   1.0000   1.0000   1.0000
     1.0000   1.0000   1.0000   1.0000   1.0000   1.0000   1.0000   1.0000
     1.0000   1.0000   1.0000   1.0000   1.0000   1.0000   1.0000   1.0000
     1.0000   1.0000   1.0000   1.0000   1.0000   1.0000   1.0000   1.0000
     1.0000   1.0000   1.0000   1.0000   1.0000   1.0000   1.0000   1.0000
     1.0000   1.0000   1.0000   1.0000   1.0000   1.0000   1.0000   1.0000

     highest occupied level (ev):     0.6716

!    total energy              =   -3003.72359854 Ry
     estimated scf accuracy    <          3.8E-11 Ry

     The total energy is the sum of the following terms:
     one-electron contribution =  -11356.57624544 Ry
     hartree contribution      =    5709.22834078 Ry
     xc contribution           =    -580.22497661 Ry
     ewald contribution        =    3223.84928272 Ry

     convergence has been achieved in  11 iterations

     negative rho (up, down):  2.808E-03 0.000E+00

     Forces acting on atoms (cartesian axes, Ry/au):

     atom    1 type  1   force =     0.00000135    0.00000078   -0.00000021
     atom    2 type  1   force =     0.00000000    0.00000156   -0.00000020
     atom    3 type  1   force =     0.00000064    0.00000037   -0.00000016
     atom    4 type  1   force =     0.00000135   -0.00000078   -0.00000020
     atom    5 type  1   force =     0.00000137   -0.00000004   -0.00000020
     atom    6 type  1   force =     0.00000066    0.00000121   -0.00000020
     atom    7 type  1   force =    -0.00000064    0.00000037   -0.00000016
     atom    8 type  1   force =     0.00000000   -0.00000074   -0.00000016
     atom    9 type  1   force =    -0.00000137   -0.00000004   -0.00000020
     atom   10 type  1   force =     0.00000000    0.00000000   -0.00000010
     atom   11 type  1   force =    -0.00000072   -0.00000117   -0.00000020
     atom   12 type  1   force =    -0.00000135   -0.00000078   -0.00000020
     atom   13 type  1   force =    -0.00000135    0.00000078   -0.00000021
     atom   14 type  1   force =    -0.00000066    0.00000121   -0.00000020
     atom   15 type  1   force =     0.00000072   -0.00000117   -0.00000020
     atom   16 type  1   force =     0.00000000   -0.00000156   -0.00000021
     atom   17 type  2   force =     0.00000000   -0.00000058   -0.00008878
     atom   18 type  2   force =    -0.00000032   -0.00000064   -0.00008843
     atom   19 type  2   force =    -0.00000071    0.00000004   -0.00008843
     atom   20 type  2   force =    -0.00000050    0.00000029   -0.00008878
     atom   21 type  2   force =    -0.00000023   -0.00000013   -0.00008897
     atom   22 type  2   force =     0.00000032   -0.00000064   -0.00008843
     atom   23 type  2   force =    -0.00000000   -0.00000000   -0.00008801
     atom   24 type  2   force =    -0.00000039    0.00000060   -0.00008843
     atom   25 type  2   force =    -0.00000000    0.00000112   -0.00009031
     atom   26 type  2   force =     0.00000097   -0.00000056   -0.00009031
     atom   27 type  2   force =     0.00000071    0.00000004   -0.00008843
     atom   28 type  2   force =     0.00000039    0.00000060   -0.00008843
     atom   29 type  2   force =     0.00000023   -0.00000013   -0.00008897
     atom   30 type  2   force =    -0.00000097   -0.00000056   -0.00009031
     atom   31 type  2   force =     0.00000000    0.00000026   -0.00008897
     atom   32 type  2   force =     0.00000050    0.00000029   -0.00008878
     atom   33 type  2   force =     0.00000000   -0.00000058    0.00008891
     atom   34 type  2   force =    -0.00000028   -0.00000064    0.00008862
     atom   35 type  2   force =    -0.00000069    0.00000008    0.00008862
     atom   36 type  2   force =    -0.00000051    0.00000029    0.00008891
     atom   37 type  2   force =    -0.00000020   -0.00000012    0.00008909
     atom   38 type  2   force =     0.00000028   -0.00000064    0.00008862
     atom   39 type  2   force =     0.00000000    0.00000000    0.00008825
     atom   40 type  2   force =    -0.00000042    0.00000056    0.00008862
     atom   41 type  2   force =    -0.00000000    0.00000111    0.00009058
     atom   42 type  2   force =     0.00000096   -0.00000055    0.00009058
     atom   43 type  2   force =     0.00000069    0.00000008    0.00008862
     atom   44 type  2   force =     0.00000042    0.00000056    0.00008862
     atom   45 type  2   force =     0.00000020   -0.00000012    0.00008909
     atom   46 type  2   force =    -0.00000096   -0.00000055    0.00009058
     atom   47 type  2   force =     0.00000000    0.00000023    0.00008909
     atom   48 type  2   force =     0.00000051    0.00000029    0.00008891
     The non-local contrib.  to forces
     atom    1 type  1   force =    -0.00000056   -0.00000032   -0.00000677
     atom    2 type  1   force =     0.00000000   -0.00000013   -0.00000677
     atom    3 type  1   force =     0.00000009    0.00000005   -0.00000677
     atom    4 type  1   force =    -0.00000011    0.00000007   -0.00000677
     atom    5 type  1   force =    -0.00000040   -0.00000032   -0.00000682
     atom    6 type  1   force =    -0.00000048   -0.00000019   -0.00000682
     atom    7 type  1   force =    -0.00000009    0.00000005   -0.00000677
     atom    8 type  1   force =     0.00000000   -0.00000010   -0.00000677
     atom    9 type  1   force =     0.00000040   -0.00000032   -0.00000682
     atom   10 type  1   force =     0.00000000    0.00000000   -0.00000690
     atom   11 type  1   force =    -0.00000007    0.00000051   -0.00000682
     atom   12 type  1   force =     0.00000011    0.00000007   -0.00000677
     atom   13 type  1   force =     0.00000056   -0.00000032   -0.00000677
     atom   14 type  1   force =     0.00000048   -0.00000019   -0.00000682
     atom   15 type  1   force =     0.00000007    0.00000051   -0.00000682
     atom   16 type  1   force =     0.00000000    0.00000065   -0.00000677
     atom   17 type  2   force =     0.00000000   -0.00000076   -0.27971602
     atom   18 type  2   force =     0.00000005   -0.00000047   -0.27971603
     atom   19 type  2   force =    -0.00000039    0.00000028   -0.27971603
     atom   20 type  2   force =    -0.00000066    0.00000038   -0.27971602
     atom   21 type  2   force =    -0.00000081   -0.00000047   -0.27971604
     atom   22 type  2   force =    -0.00000005   -0.00000047   -0.27971603
     atom   23 type  2   force =     0.00000000    0.00000000   -0.27971628
     atom   24 type  2   force =    -0.00000043    0.00000020   -0.27971603
     atom   25 type  2   force =    -0.00000000    0.00000059   -0.27971711
     atom   26 type  2   force =     0.00000051   -0.00000030   -0.27971711
     atom   27 type  2   force =     0.00000039    0.00000028   -0.27971603
     atom   28 type  2   force =     0.00000043    0.00000020   -0.27971603
     atom   29 type  2   force =     0.00000081   -0.00000047   -0.27971604
     atom   30 type  2   force =    -0.00000051   -0.00000030   -0.27971711
     atom   31 type  2   force =     0.00000000    0.00000093   -0.27971604
     atom   32 type  2   force =     0.00000066    0.00000038   -0.27971602
     atom   33 type  2   force =     0.00000000   -0.00000074    0.27971373
     atom   34 type  2   force =    -0.00000000   -0.00000045    0.27971380
     atom   35 type  2   force =    -0.00000039    0.00000022    0.27971380
     atom   36 type  2   force =    -0.00000064    0.00000037    0.27971373
     atom   37 type  2   force =    -0.00000086   -0.00000049    0.27971387
     atom   38 type  2   force =     0.00000000   -0.00000045    0.27971380
     atom   39 type  2   force =     0.00000000    0.00000000    0.27971404
     atom   40 type  2   force =    -0.00000038    0.00000023    0.27971380
     atom   41 type  2   force =     0.00000000    0.00000057    0.27971486
     atom   42 type  2   force =     0.00000050   -0.00000029    0.27971486
     atom   43 type  2   force =     0.00000039    0.00000022    0.27971380
     atom   44 type  2   force =     0.00000038    0.00000023    0.27971380
     atom   45 type  2   force =     0.00000086   -0.00000049    0.27971387
     atom   46 type  2   force =    -0.00000050   -0.00000029    0.27971486
     atom   47 type  2   force =    -0.00000000    0.00000099    0.27971387
     atom   48 type  2   force =     0.00000064    0.00000037    0.27971373
     The ionic contribution  to forces
     atom    1 type  1   force =     0.00003104    0.00000927   -0.00000598
     atom    2 type  1   force =    -0.00000152    0.00005180   -0.00000813
     atom    3 type  1   force =     0.00002375   -0.00000071   -0.00000714
     atom    4 type  1   force =     0.00003230   -0.00000421   -0.00000813
     atom    5 type  1   force =     0.00002229    0.00001999   -0.00000552
     atom    6 type  1   force =     0.00003982    0.00002507   -0.00000552
     atom    7 type  1   force =    -0.00002776   -0.00000058   -0.00000714
     atom    8 type  1   force =    -0.00000069   -0.00001827   -0.00000714
     atom    9 type  1   force =    -0.00002542    0.00003067   -0.00000552
     atom   10 type  1   force =     0.00001575    0.00001118   -0.00000665
     atom   11 type  1   force =     0.00000406   -0.00006731   -0.00000552
     atom   12 type  1   force =    -0.00004149   -0.00000068   -0.00000813
     atom   13 type  1   force =    -0.00003294    0.00001543   -0.00000598
     atom   14 type  1   force =    -0.00004901    0.00002537   -0.00000552
     atom   15 type  1   force =    -0.00000508   -0.00006293   -0.00000552
     atom   16 type  1   force =     0.00001492   -0.00001848   -0.00000598
     atom   17 type  2   force =    -0.00000017   -0.00000277   32.46410381
     atom   18 type  2   force =     0.00000201    0.00000554   32.46407633
     atom   19 type  2   force =     0.00000411   -0.00000515   32.46408136
     atom   20 type  2   force =     0.00000193    0.00000343   32.46410022
     atom   21 type  2   force =     0.00000054   -0.00000311   32.46408467
     atom   22 type  2   force =    -0.00000349    0.00000547   32.46407672
     atom   23 type  2   force =    -0.00000059   -0.00000599   32.46406604
     atom   24 type  2   force =    -0.00000045   -0.00000194   32.46407800
     atom   25 type  2   force =     0.00000481    0.00001824   32.46407962
     atom   26 type  2   force =     0.00001447   -0.00000605   32.46407525
     atom   27 type  2   force =    -0.00000659   -0.00000520   32.46408251
     atom   28 type  2   force =    -0.00000032   -0.00000027   32.46407807
     atom   29 type  2   force =    -0.00000302   -0.00000154   32.46408386
     atom   30 type  2   force =    -0.00001513   -0.00000824   32.46407057
     atom   31 type  2   force =     0.00000522   -0.00000760   32.46408928
     atom   32 type  2   force =    -0.00000331    0.00000736   32.46410457
     atom   33 type  2   force =    -0.00000017   -0.00000282  -32.46409747
     atom   34 type  2   force =     0.00000202    0.00000557  -32.46407000
     atom   35 type  2   force =     0.00000414   -0.00000515  -32.46407503
     atom   36 type  2   force =     0.00000188    0.00000346  -32.46409389
     atom   37 type  2   force =     0.00000046   -0.00000315  -32.46407789
     atom   38 type  2   force =    -0.00000351    0.00000551  -32.46407040
     atom   39 type  2   force =    -0.00000059   -0.00000599  -32.46405970
     atom   40 type  2   force =    -0.00000043   -0.00000197  -32.46407167
     atom   41 type  2   force =     0.00000481    0.00001764  -32.46407300
     atom   42 type  2   force =     0.00001395   -0.00000575  -32.46406863
     atom   43 type  2   force =    -0.00000662   -0.00000520  -32.46407618
     atom   44 type  2   force =    -0.00000034   -0.00000030  -32.46407174
     atom   45 type  2   force =    -0.00000294   -0.00000159  -32.46407708
     atom   46 type  2   force =    -0.00001461   -0.00000794  -32.46406395
     atom   47 type  2   force =     0.00000522   -0.00000751  -32.46408250
     atom   48 type  2   force =    -0.00000327    0.00000738  -32.46409824
     The local contribution  to forces
     atom    1 type  1   force =    -0.00001123   -0.00002069    0.00000661
     atom    2 type  1   force =    -0.00000000   -0.00002124    0.00000842
     atom    3 type  1   force =     0.00000471   -0.00003831    0.00000711
     atom    4 type  1   force =    -0.00001972    0.00006575    0.00000842
     atom    5 type  1   force =    -0.00009627   -0.00001360    0.00000628
     atom    6 type  1   force =    -0.00004760   -0.00000249    0.00000628
     atom    7 type  1   force =    -0.00000471   -0.00003831    0.00000711
     atom    8 type  1   force =    -0.00000000    0.00004895    0.00000711
     atom    9 type  1   force =     0.00009627   -0.00001360    0.00000628
     atom   10 type  1   force =     0.00006898    0.00004136    0.00000798
     atom   11 type  1   force =    -0.00002031    0.00000221    0.00000628
     atom   12 type  1   force =     0.00001972    0.00006575    0.00000842
     atom   13 type  1   force =     0.00001123   -0.00002069    0.00000661
     atom   14 type  1   force =     0.00004760   -0.00000249    0.00000628
     atom   15 type  1   force =     0.00002031    0.00000221    0.00000628
     atom   16 type  1   force =     0.00006898    0.00002751    0.00000661
     atom   17 type  2   force =     0.00000000   -0.00000103  -32.19884672
     atom   18 type  2   force =    -0.00000123   -0.00000723  -32.19882249
     atom   19 type  2   force =    -0.00000631   -0.00000069  -32.19882249
     atom   20 type  2   force =     0.00000406   -0.00000019  -32.19884672
     atom   21 type  2   force =    -0.00000104   -0.00000209  -32.19883142
     atom   22 type  2   force =     0.00000123   -0.00000723  -32.19882249
     atom   23 type  2   force =    -0.00000000   -0.00000291  -32.19880656
     atom   24 type  2   force =    -0.00000508    0.00000650  -32.19882249
     atom   25 type  2   force =     0.00000366   -0.00001538  -32.19882147
     atom   26 type  2   force =    -0.00001386    0.00000734  -32.19882147
     atom   27 type  2   force =     0.00000631   -0.00000069  -32.19882249
     atom   28 type  2   force =     0.00000508    0.00000650  -32.19882249
     atom   29 type  2   force =     0.00000104   -0.00000209  -32.19883142
     atom   30 type  2   force =     0.00001386    0.00000734  -32.19882147
     atom   31 type  2   force =     0.00000366   -0.00000382  -32.19883142
     atom   32 type  2   force =    -0.00000406   -0.00000019  -32.19884672
     atom   33 type  2   force =     0.00000000   -0.00000097   32.19883636
     atom   34 type  2   force =    -0.00000097   -0.00000717   32.19881211
     atom   35 type  2   force =    -0.00000612   -0.00000050   32.19881211
     atom   36 type  2   force =     0.00000411   -0.00000022   32.19883636
     atom   37 type  2   force =    -0.00000092   -0.00000202   32.19882057
     atom   38 type  2   force =     0.00000097   -0.00000717   32.19881211
     atom   39 type  2   force =    -0.00000000   -0.00000291   32.19879608
     atom   40 type  2   force =    -0.00000515    0.00000624   32.19881211
     atom   41 type  2   force =     0.00000366   -0.00001492   32.19881113
     atom   42 type  2   force =    -0.00001346    0.00000711   32.19881113
     atom   43 type  2   force =     0.00000612   -0.00000050   32.19881211
     atom   44 type  2   force =     0.00000515    0.00000624   32.19881211
     atom   45 type  2   force =     0.00000092   -0.00000202   32.19882057
     atom   46 type  2   force =     0.00001346    0.00000711   32.19881113
     atom   47 type  2   force =     0.00000366   -0.00000396   32.19882057
     atom   48 type  2   force =    -0.00000411   -0.00000022   32.19883636
     The core correction contribution to forces
     atom    1 type  1   force =    -0.00000006    0.00000013    0.00000050
     atom    2 type  1   force =     0.00000000   -0.00000019    0.00000050
     atom    3 type  1   force =    -0.00000030    0.00000030    0.00000050
     atom    4 type  1   force =    -0.00000014   -0.00000055    0.00000050
     atom    5 type  1   force =     0.00000071   -0.00000012    0.00000050
     atom    6 type  1   force =     0.00000011   -0.00000018    0.00000050
     atom    7 type  1   force =     0.00000030    0.00000030    0.00000050
     atom    8 type  1   force =    -0.00000000   -0.00000028    0.00000050
     atom    9 type  1   force =    -0.00000071   -0.00000012    0.00000050
     atom   10 type  1   force =    -0.00000080   -0.00000048    0.00000051
     atom   11 type  1   force =     0.00000020    0.00000047    0.00000050
     atom   12 type  1   force =     0.00000014   -0.00000055    0.00000050
     atom   13 type  1   force =     0.00000006    0.00000013    0.00000050
     atom   14 type  1   force =    -0.00000011   -0.00000018    0.00000050
     atom   15 type  1   force =    -0.00000020    0.00000047    0.00000050
     atom   16 type  1   force =    -0.00000080   -0.00000010    0.00000050
     atom   17 type  2   force =     0.00000000    0.00000041    0.01436874
     atom   18 type  2   force =    -0.00000018    0.00000009    0.01436874
     atom   19 type  2   force =    -0.00000008    0.00000018    0.01436874
     atom   20 type  2   force =    -0.00000022   -0.00000012    0.01436874
     atom   21 type  2   force =     0.00000018    0.00000028    0.01436874
     atom   22 type  2   force =     0.00000018    0.00000009    0.01436874
     atom   23 type  2   force =     0.00000000    0.00000034    0.01436876
     atom   24 type  2   force =     0.00000010   -0.00000010    0.01436874
     atom   25 type  2   force =    -0.00000042   -0.00000005    0.01436881
     atom   26 type  2   force =     0.00000001    0.00000007    0.01436881
     atom   27 type  2   force =     0.00000008    0.00000018    0.01436874
     atom   28 type  2   force =    -0.00000010   -0.00000010    0.01436874
     atom   29 type  2   force =    -0.00000018    0.00000028    0.01436874
     atom   30 type  2   force =    -0.00000001    0.00000007    0.01436881
     atom   31 type  2   force =    -0.00000042    0.00000038    0.01436874
     atom   32 type  2   force =     0.00000022   -0.00000012    0.01436874
     atom   33 type  2   force =     0.00000000    0.00000041   -0.01436817
     atom   34 type  2   force =    -0.00000017    0.00000009   -0.01436817
     atom   35 type  2   force =    -0.00000008    0.00000018   -0.01436817
     atom   36 type  2   force =    -0.00000022   -0.00000012   -0.01436817
     atom   37 type  2   force =     0.00000018    0.00000028   -0.01436817
     atom   38 type  2   force =     0.00000017    0.00000009   -0.01436817
     atom   39 type  2   force =     0.00000000    0.00000034   -0.01436819
     atom   40 type  2   force =     0.00000010   -0.00000010   -0.01436817
     atom   41 type  2   force =    -0.00000042   -0.00000005   -0.01436824
     atom   42 type  2   force =     0.00000002    0.00000007   -0.01436824
     atom   43 type  2   force =     0.00000008    0.00000018   -0.01436817
     atom   44 type  2   force =    -0.00000010   -0.00000010   -0.01436817
     atom   45 type  2   force =    -0.00000018    0.00000028   -0.01436817
     atom   46 type  2   force =    -0.00000002    0.00000007   -0.01436824
     atom   47 type  2   force =    -0.00000042    0.00000038   -0.01436817
     atom   48 type  2   force =     0.00000022   -0.00000012   -0.01436817
     The Hubbard contrib.    to forces
     atom    1 type  1   force =     0.00000000    0.00000000    0.00000000
     atom    2 type  1   force =     0.00000000    0.00000000    0.00000000
     atom    3 type  1   force =     0.00000000    0.00000000    0.00000000
     atom    4 type  1   force =     0.00000000    0.00000000    0.00000000
     atom    5 type  1   force =     0.00000000    0.00000000    0.00000000
     atom    6 type  1   force =     0.00000000    0.00000000    0.00000000
     atom    7 type  1   force =     0.00000000    0.00000000    0.00000000
     atom    8 type  1   force =     0.00000000    0.00000000    0.00000000
     atom    9 type  1   force =     0.00000000    0.00000000    0.00000000
     atom   10 type  1   force =     0.00000000    0.00000000    0.00000000
     atom   11 type  1   force =     0.00000000    0.00000000    0.00000000
     atom   12 type  1   force =     0.00000000    0.00000000    0.00000000
     atom   13 type  1   force =     0.00000000    0.00000000    0.00000000
     atom   14 type  1   force =     0.00000000    0.00000000    0.00000000
     atom   15 type  1   force =     0.00000000    0.00000000    0.00000000
     atom   16 type  1   force =     0.00000000    0.00000000    0.00000000
     atom   17 type  2   force =     0.00000000    0.00000000    0.00000000
     atom   18 type  2   force =     0.00000000    0.00000000    0.00000000
     atom   19 type  2   force =     0.00000000    0.00000000    0.00000000
     atom   20 type  2   force =     0.00000000    0.00000000    0.00000000
     atom   21 type  2   force =     0.00000000    0.00000000    0.00000000
     atom   22 type  2   force =     0.00000000    0.00000000    0.00000000
     atom   23 type  2   force =     0.00000000    0.00000000    0.00000000
     atom   24 type  2   force =     0.00000000    0.00000000    0.00000000
     atom   25 type  2   force =     0.00000000    0.00000000    0.00000000
     atom   26 type  2   force =     0.00000000    0.00000000    0.00000000
     atom   27 type  2   force =     0.00000000    0.00000000    0.00000000
     atom   28 type  2   force =     0.00000000    0.00000000    0.00000000
     atom   29 type  2   force =     0.00000000    0.00000000    0.00000000
     atom   30 type  2   force =     0.00000000    0.00000000    0.00000000
     atom   31 type  2   force =     0.00000000    0.00000000    0.00000000
     atom   32 type  2   force =     0.00000000    0.00000000    0.00000000
     atom   33 type  2   force =     0.00000000    0.00000000    0.00000000
     atom   34 type  2   force =     0.00000000    0.00000000    0.00000000
     atom   35 type  2   force =     0.00000000    0.00000000    0.00000000
     atom   36 type  2   force =     0.00000000    0.00000000    0.00000000
     atom   37 type  2   force =     0.00000000    0.00000000    0.00000000
     atom   38 type  2   force =     0.00000000    0.00000000    0.00000000
     atom   39 type  2   force =     0.00000000    0.00000000    0.00000000
     atom   40 type  2   force =     0.00000000    0.00000000    0.00000000
     atom   41 type  2   force =     0.00000000    0.00000000    0.00000000
     atom   42 type  2   force =     0.00000000    0.00000000    0.00000000
     atom   43 type  2   force =     0.00000000    0.00000000    0.00000000
     atom   44 type  2   force =     0.00000000    0.00000000    0.00000000
     atom   45 type  2   force =     0.00000000    0.00000000    0.00000000
     atom   46 type  2   force =     0.00000000    0.00000000    0.00000000
     atom   47 type  2   force =     0.00000000    0.00000000    0.00000000
     atom   48 type  2   force =     0.00000000    0.00000000    0.00000000
     The SCF correction term to forces
     atom    1 type  1   force =    -0.00000349   -0.00000202    0.00000321
     atom    2 type  1   force =    -0.00000000    0.00000266    0.00000356
     atom    3 type  1   force =     0.00000540    0.00000312    0.00000391
     atom    4 type  1   force =     0.00000230   -0.00000133    0.00000356
     atom    5 type  1   force =    -0.00000093   -0.00000486    0.00000315
     atom    6 type  1   force =    -0.00000468    0.00000162    0.00000315
     atom    7 type  1   force =    -0.00000540    0.00000312    0.00000391
     atom    8 type  1   force =    -0.00000000   -0.00000624    0.00000391
     atom    9 type  1   force =     0.00000093   -0.00000486    0.00000315
     atom   10 type  1   force =    -0.00000000    0.00000000    0.00000274
     atom   11 type  1   force =    -0.00000374    0.00000324    0.00000315
     atom   12 type  1   force =    -0.00000230   -0.00000133    0.00000356
     atom   13 type  1   force =     0.00000349   -0.00000202    0.00000321
     atom   14 type  1   force =     0.00000468    0.00000162    0.00000315
     atom   15 type  1   force =     0.00000374    0.00000324    0.00000315
     atom   16 type  1   force =     0.00000000    0.00000404    0.00000321
     atom   17 type  2   force =    -0.00000000   -0.00000072    0.00000013
     atom   18 type  2   force =     0.00000169    0.00000207    0.00000031
     atom   19 type  2   force =     0.00000264    0.00000042    0.00000031
     atom   20 type  2   force =    -0.00000062    0.00000036    0.00000013
     atom   21 type  2   force =    -0.00000187   -0.00000108    0.00000159
     atom   22 type  2   force =    -0.00000169    0.00000207    0.00000031
     atom   23 type  2   force =     0.00000000   -0.00000000   -0.00000219
     atom   24 type  2   force =     0.00000095   -0.00000250    0.00000031
     atom   25 type  2   force =    -0.00000000   -0.00000088    0.00000210
     atom   26 type  2   force =    -0.00000076    0.00000044    0.00000210
     atom   27 type  2   force =    -0.00000264    0.00000042    0.00000031
     atom   28 type  2   force =    -0.00000095   -0.00000250    0.00000031
     atom   29 type  2   force =     0.00000187   -0.00000108    0.00000159
     atom   30 type  2   force =     0.00000076    0.00000044    0.00000210
     atom   31 type  2   force =    -0.00000000    0.00000216    0.00000159
     atom   32 type  2   force =     0.00000062    0.00000036    0.00000013
     atom   33 type  2   force =     0.00000000   -0.00000076    0.00000129
     atom   34 type  2   force =     0.00000151    0.00000195    0.00000116
     atom   35 type  2   force =     0.00000244    0.00000033    0.00000116
     atom   36 type  2   force =    -0.00000065    0.00000038    0.00000129
     atom   37 type  2   force =    -0.00000184   -0.00000106   -0.00000024
     atom   38 type  2   force =    -0.00000151    0.00000195    0.00000116
     atom   39 type  2   force =     0.00000000    0.00000000    0.00000380
     atom   40 type  2   force =     0.00000093   -0.00000228    0.00000116
     atom   41 type  2   force =     0.00000000   -0.00000073   -0.00000088
     atom   42 type  2   force =    -0.00000063    0.00000036   -0.00000088
     atom   43 type  2   force =    -0.00000244    0.00000033    0.00000116
     atom   44 type  2   force =    -0.00000093   -0.00000228    0.00000116
     atom   45 type  2   force =     0.00000184   -0.00000106   -0.00000024
     atom   46 type  2   force =     0.00000063    0.00000036   -0.00000088
     atom   47 type  2   force =    -0.00000000    0.00000213   -0.00000024
     atom   48 type  2   force =     0.00000065    0.00000038    0.00000129

     Total force =     0.000504     Total SCF correction =     0.000026


     Computing stress (Cartesian axis) and pressure


     negative rho (up, down):  2.808E-03 0.000E+00
          total   stress  (Ry/bohr**3)                   (kbar)     P=       -1.72
  -0.00001697   0.00000000   0.00000000           -2.50        0.00        0.00
   0.00000000  -0.00001697  -0.00000000            0.00       -2.50       -0.00
   0.00000000  -0.00000000  -0.00000118            0.00       -0.00       -0.17

     kinetic stress (kbar)   4874.70      0.00      0.00
                                0.00   4874.70      0.00
                                0.00      0.00   4938.36

     local   stress (kbar)-114777.45     -0.00     -0.00
                               -0.00-114777.45     -0.00
                               -0.00     -0.00 112015.42

     nonloc. stress (kbar)   5137.94     -0.00      0.00
                               -0.00   5137.94      0.00
                                0.00      0.00   5152.98

     hartree stress (kbar)  56072.17     -0.00      0.00
                               -0.00  56072.17      0.00
                                0.00      0.00 -53314.28

     exc-cor stress (kbar)    367.12      0.00     -0.00
                                0.00    367.12      0.00
                               -0.00      0.00    366.14

     corecor stress (kbar)  -1910.16     -0.00      0.00
                               -0.00  -1910.16      0.00
                                0.00      0.00  -1912.21

     ewald   stress (kbar)  50233.18      0.00     -0.00
                                0.00  50233.18      0.00
                               -0.00      0.00 -67246.59

     hubbard stress (kbar)      0.00      0.00      0.00
                                0.00      0.00      0.00
                                0.00      0.00      0.00

     DFT-D   stress (kbar)      0.00      0.00      0.00
                                0.00      0.00      0.00
                                0.00      0.00      0.00

     XDM     stress (kbar)      0.00      0.00      0.00
                                0.00      0.00      0.00
                                0.00      0.00      0.00

     dft-nl  stress (kbar)      0.00      0.00      0.00
                                0.00      0.00      0.00
                                0.00      0.00      0.00

     TS-vdW  stress (kbar)      0.00      0.00      0.00
                                0.00      0.00      0.00
                                0.00      0.00      0.00

     MDB     stress (kbar)      0.00      0.00      0.00
                                0.00      0.00      0.00
                                0.00      0.00      0.00

     3D-RISM stress (kbar)      0.00      0.00      0.00
                                0.00      0.00      0.00
                                0.00      0.00      0.00

     Energy error            =      2.9E-06 Ry
     Gradient error          =      9.1E-05 Ry/Bohr

     bfgs converged in   3 scf cycles and   2 bfgs steps
     (criteria: energy <  1.0E-04 Ry, force <  1.0E-04 Ry/Bohr)

     End of BFGS Geometry Optimization

     Final energy             =   -3003.7235985442 Ry

     File /home/nihal/Desktop/Otptf/Trial_2.bfgs deleted, as requested
Begin final coordinates

ATOMIC_POSITIONS (angstrom)
Mo               1.5951566301        0.9209642091       11.1592501759
Mo               0.0000000000        3.6838575651       11.1592501340
Mo              -1.5951588860        6.4467534885       11.1592501508
Mo              -3.1903172427        9.2096487176       11.1592501340
Mo               4.7854729152        0.9209648025       11.1592501812
Mo               3.1903152866        3.6838581593       11.1592501812
Mo               1.5951588860        6.4467534885       11.1592501508
Mo               0.0000000000        9.2096490230       11.1592501508
Mo               7.9757900848        0.9209648025       11.1592501812
Mo               6.3806310000        3.6838590000       11.1592501370
Mo               4.7854743713        6.4467550382       11.1592501812
Mo               3.1903172427        9.2096487176       11.1592501340
Mo              11.1661063699        0.9209642091       11.1592501759
Mo               9.5709477134        3.6838581593       11.1592501812
Mo               7.9757886287        6.4467550382       11.1592501812
Mo               6.3806310000        9.2096495818       11.1592501759
S                0.0000000000        1.8419310070       12.7193364467
S               -1.5951577288        4.6048244739       12.7193350712
S               -3.1903154539        7.3677189979       12.7193350712
S               -4.7854731279       10.1306124965       12.7193364467
S                3.1903161254        1.8419300724       12.7193358123
S                1.5951577288        4.6048244739       12.7193350712
S                0.0000000000        7.3677190000       12.7193346444
S               -1.5951577251       10.1306125281       12.7193350712
S                6.3806310000        1.8419274381       12.7193373005
S                4.7854717814        4.6048252809       12.7193373005
S                3.1903154539        7.3677189979       12.7193350712
S                1.5951577251       10.1306125281       12.7193350712
S                9.5709468746        1.8419300724       12.7193358123
S                7.9757912186        4.6048252809       12.7193373005
S                6.3806310000        7.3677188551       12.7193358123
S                4.7854731279       10.1306124965       12.7193364467
S                0.0000000000        1.8419309652        9.5991713670
S               -1.5951577928        4.6048244494        9.5991727578
S               -3.1903155072        7.3677189548        9.5991727578
S               -4.7854731640       10.1306125174        9.5991713670
S                3.1903161445        1.8419300834        9.5991720490
S                1.5951577928        4.6048244494        9.5991727578
S                0.0000000000        7.3677190000        9.5991731999
S               -1.5951577144       10.1306125958        9.5991727578
S                6.3806310000        1.8419274845        9.5991705498
S                4.7854718215        4.6048252578        9.5991705498
S                3.1903155072        7.3677189548        9.5991727578
S                1.5951577144       10.1306125958        9.5991727578
S                9.5709468555        1.8419300834        9.5991720490
S                7.9757911785        4.6048252578        9.5991705498
S                6.3806310000        7.3677188332        9.5991720490
S                4.7854731640       10.1306125174        9.5991713670
End final coordinates



     Writing all to output data dir /home/nihal/Desktop/Otptf/Trial_2.save/ :
     XML data file, charge density, pseudopotentials, collected wavefunctions

     init_run     :     35.40s CPU     37.24s WALL (       1 calls)
     electrons    :   3767.15s CPU   3908.46s WALL (       3 calls)
     update_pot   :      1.14s CPU      1.24s WALL (       2 calls)
     forces       :     62.15s CPU     65.41s WALL (       3 calls)
     stress       :    251.53s CPU    259.62s WALL (       3 calls)

     Called by init_run:
     wfcinit      :     31.82s CPU     32.75s WALL (       1 calls)
     wfcinit:atom :      0.11s CPU      0.28s WALL (       7 calls)
     wfcinit:wfcr :     30.30s CPU     30.89s WALL (       7 calls)
     potinit      :      0.72s CPU      0.79s WALL (       1 calls)
     hinit0       :      0.55s CPU      0.58s WALL (       1 calls)

     Called by electrons:
     c_bands      :   3242.47s CPU   3308.03s WALL (      43 calls)
     sum_band     :    438.36s CPU    480.50s WALL (      43 calls)
     v_of_rho     :     17.07s CPU     19.25s WALL (      43 calls)
     v_h          :      1.43s CPU      1.68s WALL (      43 calls)
     v_xc         :     17.79s CPU     20.04s WALL (      49 calls)
     newd         :     69.78s CPU    103.29s WALL (      43 calls)
     mix_rho      :      3.36s CPU      3.49s WALL (      43 calls)

     Called by c_bands:
     init_us_2    :     53.77s CPU     53.87s WALL (     651 calls)
     cegterg      :   3164.69s CPU   3230.17s WALL (     301 calls)

     Called by sum_band:
     sum_band:wei :      0.00s CPU      0.00s WALL (      43 calls)
     sum_band:loo :    329.64s CPU    334.97s WALL (      43 calls)
     sum_band:buf :      4.16s CPU      4.17s WALL (     301 calls)
     sum_band:ini :     24.83s CPU     24.84s WALL (     301 calls)
     sum_band:cal :    168.34s CPU    168.55s WALL (     301 calls)
     sum_band:bec :      0.23s CPU      0.23s WALL (     301 calls)
     addusdens    :    105.82s CPU    142.40s WALL (      43 calls)
                                        0.00s GPU  (      43 calls)
     addusd:skk   :      1.90s CPU      4.67s WALL (      86 calls)
                                        0.00s GPU  (      86 calls)

     Called by *egterg:
     cdiaghg      :     37.20s CPU     37.78s WALL (    1636 calls)
     cegterg:over :    515.83s CPU    516.11s WALL (    1370 calls)
     cegterg:upda :    176.76s CPU    182.14s WALL (    1370 calls)
     cegterg:last :    412.19s CPU    412.70s WALL (     746 calls)
     cdiaghg:chol :      2.14s CPU      2.15s WALL (    1636 calls)
     cdiaghg:inve :      0.49s CPU      0.49s WALL (    1636 calls)
     cdiaghg:para :      8.13s CPU      8.62s WALL (    3272 calls)
     h_psi        :   1503.88s CPU   1545.18s WALL (    1678 calls)
     s_psi        :    313.52s CPU    313.55s WALL (    1678 calls)
     g_psi        :      6.33s CPU      6.34s WALL (    1370 calls)

     Called by h_psi:
     h_psi:calbec :    499.37s CPU    499.96s WALL (    1678 calls)
     vloc_psi     :    682.66s CPU    716.86s WALL (    1678 calls)
                                        0.00s GPU  (    1678 calls)
     add_vuspsi   :    312.49s CPU    312.52s WALL (    1678 calls)

     General routines
     calbec       :    860.32s CPU    861.33s WALL (    2336 calls)
     fft          :     15.41s CPU     16.90s WALL (     633 calls)
     ffts         :      0.58s CPU      0.62s WALL (      86 calls)
     fftw         :    612.82s CPU    645.72s WALL (  425552 calls)
     interpolate  :      1.68s CPU      1.81s WALL (      43 calls)

     Parallel routines

     PWSCF        :      1h 8m CPU      1h11m WALL


   This run was terminated on:   6: 2:24   1Jul2026            

=------------------------------------------------------------------------------=
   JOB DONE.
=------------------------------------------------------------------------------=
