
     Program PWSCF v.7.5 starts on  5Jul2026 at  8: 2:14 

     This program is part of the open-source Quantum ESPRESSO suite
     for quantum simulation of materials; please cite
         "P. Giannozzi et al., J. Phys.:Condens. Matter 21 395502 (2009);
         "P. Giannozzi et al., J. Phys.:Condens. Matter 29 465901 (2017);
         "P. Giannozzi et al., J. Chem. Phys. 152 154105 (2020);
          URL http://www.quantum-espresso.org", 
     in publications or presentations arising from this work. More details at
     http://www.quantum-espresso.org/quote

     Parallel version (MPI), running on     8 processors

     MPI processes distributed on     1 nodes
     27957 MiB available memory on the printing compute node when the environment starts

     Reading input from MoSt_nscf.in

     Current dimensions of program PWSCF are:
     Max number of different atomic species (ntypx) = 10
     Max number of k-points (npk) =  40000
     Max angular momentum in pseudopotentials (lmaxx) =  4

     Atomic positions and unit cell read from directory:
     /home/nihal/Desktop/Otptf/Trial_2.save/

     Found identity + (  0.0000  0.2500 -0.0000) symmetry
     This is a supercell, fractional translations are disabled
     Message from routine setup:
     using ibrav=0 with symmetry is DISCOURAGED, use correct ibrav instead

     R & G space division:  proc/nbgrp/npool/nimage =       8
     Subspace diagonalization in iterative solution of the eigenvalue problem:
     one sub-group per band group will be used
     scalapack distributed-memory algorithm (size of sub-group:  2*  2 procs)


     Parallelization info
     --------------------
     sticks:   dense  smooth     PW     G-vecs:    dense   smooth      PW
     Min        2503    1301    339               336908   126317   16843
     Max        2504    1302    340               336911   126322   16850
     Sum       20029   10411   2713              2695269  1010563  134763

     Using Slab Decomposition



     bravais-lattice index     =            0
     lattice parameter (alat)  =      24.1153  a.u.
     unit-cell volume          =   14275.9760 (a.u.)^3
     number of atoms/cell      =           48
     number of atomic types    =            2
     number of electrons       =       416.00
     number of Kohn-Sham states=          260
     kinetic-energy cutoff     =      65.0000  Ry
     charge density cutoff     =     500.0000  Ry
     Exchange-correlation=  SLA  PW   PBX  PBC
                           (   1   4   3   4   0   0   0)

     celldm(1)=  24.115292  celldm(2)=   0.000000  celldm(3)=   0.000000
     celldm(4)=   0.000000  celldm(5)=   0.000000  celldm(6)=   0.000000

     crystal axes: (cart. coord. in units of alat)
               a(1) = (   1.000000   0.000000   0.000000 )  
               a(2) = (  -0.500000   0.866025   0.000000 )  
               a(3) = (   0.000000   0.000000   1.175432 )  

     reciprocal axes: (cart. coord. in units 2 pi/alat)
               b(1) = (  1.000000  0.577350 -0.000000 )  
               b(2) = (  0.000000  1.154701  0.000000 )  
               b(3) = (  0.000000 -0.000000  0.850751 )  


     PseudoPot. # 1 for Mo read from file:
     /home/nihal/Desktop/pseudos/mo_pbe_v1.uspp.F.UPF
     MD5 check sum: 30c4dcd161f5d35cd49bb5239c51a633
     Pseudo is Ultrasoft + core correction, Zval = 14.0
     Generated by new atomic code, or converted to UPF format
     Using radial grid of  889 points,  6 beta functions with: 
                l(1) =   0
                l(2) =   0
                l(3) =   1
                l(4) =   1
                l(5) =   2
                l(6) =   2
     Q(r) pseudized with  6 coefficients,  rinner =    1.000   1.000   1.000
                                                       1.000   1.000

     PseudoPot. # 2 for S  read from file:
     /home/nihal/Desktop/pseudos/s_pbe_v1.4.uspp.F.UPF
     MD5 check sum: 88d86576ff6df21479756cfb9bdac1df
     Pseudo is Ultrasoft + core correction, Zval =  6.0
     Generated by new atomic code, or converted to UPF format
     Using radial grid of  907 points,  6 beta functions with: 
                l(1) =   0
                l(2) =   0
                l(3) =   1
                l(4) =   1
                l(5) =   2
                l(6) =   2
     Q(r) pseudized with  8 coefficients,  rinner =    1.300   1.300   1.300
                                                       1.300   1.300

     atomic species   valence    mass     pseudopotential
     Mo               14.00    95.95000     Mo( 1.00)
     S                 6.00    32.06500     S ( 1.00)

      6 Sym. Ops. (no inversion) found


                                    s                        frac. trans.

      isym =  1     identity                                     

 cryst.   s( 1) = (     1          0          0      )
                  (     0          1          0      )
                  (     0          0          1      )

 cart.    s( 1) = (  1.0000000  0.0000000  0.0000000 )
                  (  0.0000000  1.0000000  0.0000000 )
                  (  0.0000000  0.0000000  1.0000000 )


      isym =  2     120 deg rotation - cryst. axis [0,0,1]       

 cryst.   s( 2) = (     0          1          0      )
                  (    -1         -1          0      )
                  (     0          0          1      )

 cart.    s( 2) = ( -0.5000000 -0.8660254  0.0000000 )
                  (  0.8660254 -0.5000000  0.0000000 )
                  (  0.0000000  0.0000000  1.0000000 )


      isym =  3     120 deg rotation - cryst. axis [0,0,-1]      

 cryst.   s( 3) = (    -1         -1          0      )
                  (     1          0          0      )
                  (     0          0          1      )

 cart.    s( 3) = ( -0.5000000  0.8660254  0.0000000 )
                  ( -0.8660254 -0.5000000  0.0000000 )
                  (  0.0000000  0.0000000  1.0000000 )


      isym =  4     inv. 180 deg rotation - cart. axis [1,0,0]   

 cryst.   s( 4) = (    -1          0          0      )
                  (     1          1          0      )
                  (     0          0          1      )

 cart.    s( 4) = ( -1.0000000 -0.0000000  0.0000000 )
                  (  0.0000000  1.0000000  0.0000000 )
                  (  0.0000000  0.0000000  1.0000000 )


      isym =  5     inv. 180 deg rotation - cryst. axis [0,1,0]  

 cryst.   s( 5) = (     1          1          0      )
                  (     0         -1          0      )
                  (     0          0          1      )

 cart.    s( 5) = (  0.5000000  0.8660254  0.0000000 )
                  (  0.8660254 -0.5000000  0.0000000 )
                  (  0.0000000  0.0000000  1.0000000 )


      isym =  6     inv. 180 deg rotation - cryst. axis [1,1,0]  

 cryst.   s( 6) = (     0         -1          0      )
                  (    -1          0          0      )
                  (     0          0          1      )

 cart.    s( 6) = (  0.5000000 -0.8660254  0.0000000 )
                  ( -0.8660254 -0.5000000  0.0000000 )
                  (  0.0000000  0.0000000  1.0000000 )


   Cartesian axes

     site n.     atom                  positions (alat units)
         1        Mo     tau(   1) = (   0.1249999   0.0721687   0.8744628  )
         2        Mo     tau(   2) = (   0.0000000   0.2886750   0.8744628  )
         3        Mo     tau(   3) = (  -0.1250001   0.5051815   0.8744628  )
         4        Mo     tau(   4) = (  -0.2500001   0.7216879   0.8744628  )
         5        Mo     tau(   5) = (   0.3749999   0.0721688   0.8744628  )
         6        Mo     tau(   6) = (   0.2500000   0.2886750   0.8744628  )
         7        Mo     tau(   7) = (   0.1250001   0.5051815   0.8744628  )
         8        Mo     tau(   8) = (   0.0000000   0.7216879   0.8744628  )
         9        Mo     tau(   9) = (   0.6250001   0.0721688   0.8744628  )
        10        Mo     tau(  10) = (   0.5000000   0.2886751   0.8744628  )
        11        Mo     tau(  11) = (   0.3750001   0.5051816   0.8744628  )
        12        Mo     tau(  12) = (   0.2500001   0.7216879   0.8744628  )
        13        Mo     tau(  13) = (   0.8750001   0.0721687   0.8744628  )
        14        Mo     tau(  14) = (   0.7500000   0.2886750   0.8744628  )
        15        Mo     tau(  15) = (   0.6249999   0.5051816   0.8744628  )
        16        Mo     tau(  16) = (   0.5000000   0.7216879   0.8744628  )
        17        S      tau(  17) = (   0.0000000   0.1443377   0.9967145  )
        18        S      tau(  18) = (  -0.1250000   0.3608439   0.9967144  )
        19        S      tau(  19) = (  -0.2500000   0.5773503   0.9967144  )
        20        S      tau(  20) = (  -0.3750000   0.7938566   0.9967145  )
        21        S      tau(  21) = (   0.2500000   0.1443376   0.9967145  )
        22        S      tau(  22) = (   0.1250000   0.3608439   0.9967144  )
        23        S      tau(  23) = (   0.0000000   0.5773503   0.9967144  )
        24        S      tau(  24) = (  -0.1250000   0.7938566   0.9967144  )
        25        S      tau(  25) = (   0.5000000   0.1443374   0.9967146  )
        26        S      tau(  26) = (   0.3749999   0.3608440   0.9967146  )
        27        S      tau(  27) = (   0.2500000   0.5773503   0.9967144  )
        28        S      tau(  28) = (   0.1250000   0.7938566   0.9967144  )
        29        S      tau(  29) = (   0.7500000   0.1443376   0.9967145  )
        30        S      tau(  30) = (   0.6250001   0.3608440   0.9967146  )
        31        S      tau(  31) = (   0.5000000   0.5773503   0.9967145  )
        32        S      tau(  32) = (   0.3750000   0.7938566   0.9967145  )
        33        S      tau(  33) = (   0.0000000   0.1443377   0.7522117  )
        34        S      tau(  34) = (  -0.1250000   0.3608439   0.7522118  )
        35        S      tau(  35) = (  -0.2500000   0.5773503   0.7522118  )
        36        S      tau(  36) = (  -0.3750000   0.7938566   0.7522117  )
        37        S      tau(  37) = (   0.2500000   0.1443376   0.7522118  )
        38        S      tau(  38) = (   0.1250000   0.3608439   0.7522118  )
        39        S      tau(  39) = (   0.0000000   0.5773503   0.7522118  )
        40        S      tau(  40) = (  -0.1250000   0.7938566   0.7522118  )
        41        S      tau(  41) = (   0.5000000   0.1443374   0.7522116  )
        42        S      tau(  42) = (   0.3749999   0.3608440   0.7522116  )
        43        S      tau(  43) = (   0.2500000   0.5773503   0.7522118  )
        44        S      tau(  44) = (   0.1250000   0.7938566   0.7522118  )
        45        S      tau(  45) = (   0.7500000   0.1443376   0.7522118  )
        46        S      tau(  46) = (   0.6250001   0.3608440   0.7522116  )
        47        S      tau(  47) = (   0.5000000   0.5773503   0.7522118  )
        48        S      tau(  48) = (   0.3750000   0.7938566   0.7522117  )

   Crystallographic axes

     site n.     atom                  positions (cryst. coord.)
         1        Mo     tau(   1) = (  0.1666665  0.0833333  0.7439500  )
         2        Mo     tau(   2) = (  0.1666666  0.3333332  0.7439500  )
         3        Mo     tau(   3) = (  0.1666666  0.5833333  0.7439500  )
         4        Mo     tau(   4) = (  0.1666666  0.8333334  0.7439500  )
         5        Mo     tau(   5) = (  0.4166666  0.0833333  0.7439500  )
         6        Mo     tau(   6) = (  0.4166666  0.3333332  0.7439500  )
         7        Mo     tau(   7) = (  0.4166667  0.5833333  0.7439500  )
         8        Mo     tau(   8) = (  0.4166667  0.8333334  0.7439500  )
         9        Mo     tau(   9) = (  0.6666667  0.0833333  0.7439500  )
        10        Mo     tau(  10) = (  0.6666666  0.3333333  0.7439500  )
        11        Mo     tau(  11) = (  0.6666668  0.5833334  0.7439500  )
        12        Mo     tau(  12) = (  0.6666668  0.8333334  0.7439500  )
        13        Mo     tau(  13) = (  0.9166667  0.0833333  0.7439500  )
        14        Mo     tau(  14) = (  0.9166667  0.3333332  0.7439500  )
        15        Mo     tau(  15) = (  0.9166667  0.5833334  0.7439500  )
        16        Mo     tau(  16) = (  0.9166667  0.8333335  0.7439500  )
        17        S      tau(  17) = (  0.0833334  0.1666668  0.8479558  )
        18        S      tau(  18) = (  0.0833334  0.4166667  0.8479557  )
        19        S      tau(  19) = (  0.0833334  0.6666667  0.8479557  )
        20        S      tau(  20) = (  0.0833333  0.9166666  0.8479558  )
        21        S      tau(  21) = (  0.3333334  0.1666667  0.8479557  )
        22        S      tau(  22) = (  0.3333333  0.4166667  0.8479557  )
        23        S      tau(  23) = (  0.3333334  0.6666667  0.8479556  )
        24        S      tau(  24) = (  0.3333333  0.9166666  0.8479557  )
        25        S      tau(  25) = (  0.5833332  0.1666665  0.8479558  )
        26        S      tau(  26) = (  0.5833332  0.4166668  0.8479558  )
        27        S      tau(  27) = (  0.5833333  0.6666667  0.8479557  )
        28        S      tau(  28) = (  0.5833333  0.9166666  0.8479557  )
        29        S      tau(  29) = (  0.8333333  0.1666667  0.8479557  )
        30        S      tau(  30) = (  0.8333335  0.4166668  0.8479558  )
        31        S      tau(  31) = (  0.8333333  0.6666667  0.8479557  )
        32        S      tau(  32) = (  0.8333333  0.9166666  0.8479558  )
        33        S      tau(  33) = (  0.0833334  0.1666668  0.6399448  )
        34        S      tau(  34) = (  0.0833334  0.4166667  0.6399449  )
        35        S      tau(  35) = (  0.0833334  0.6666667  0.6399449  )
        36        S      tau(  36) = (  0.0833333  0.9166666  0.6399448  )
        37        S      tau(  37) = (  0.3333334  0.1666667  0.6399448  )
        38        S      tau(  38) = (  0.3333333  0.4166667  0.6399449  )
        39        S      tau(  39) = (  0.3333334  0.6666667  0.6399449  )
        40        S      tau(  40) = (  0.3333333  0.9166666  0.6399449  )
        41        S      tau(  41) = (  0.5833332  0.1666665  0.6399447  )
        42        S      tau(  42) = (  0.5833332  0.4166668  0.6399447  )
        43        S      tau(  43) = (  0.5833333  0.6666667  0.6399449  )
        44        S      tau(  44) = (  0.5833333  0.9166666  0.6399449  )
        45        S      tau(  45) = (  0.8333333  0.1666667  0.6399448  )
        46        S      tau(  46) = (  0.8333335  0.4166668  0.6399447  )
        47        S      tau(  47) = (  0.8333333  0.6666667  0.6399448  )
        48        S      tau(  48) = (  0.8333333  0.9166666  0.6399448  )

     number of k points=    61
                       cart. coord. in units 2pi/alat
        k(    1) = (   0.0000000   0.0000000   0.0000000), wk =   0.0034722
        k(    2) = (   0.0000000   0.0481125   0.0000000), wk =   0.0208333
        k(    3) = (   0.0000000   0.0962250   0.0000000), wk =   0.0208333
        k(    4) = (   0.0000000   0.1443376   0.0000000), wk =   0.0208333
        k(    5) = (   0.0000000   0.1924501   0.0000000), wk =   0.0208333
        k(    6) = (   0.0000000   0.2405626   0.0000000), wk =   0.0208333
        k(    7) = (   0.0000000   0.2886751   0.0000000), wk =   0.0208333
        k(    8) = (   0.0000000   0.3367877   0.0000000), wk =   0.0208333
        k(    9) = (   0.0000000   0.3849002   0.0000000), wk =   0.0208333
        k(   10) = (   0.0000000   0.4330127   0.0000000), wk =   0.0208333
        k(   11) = (   0.0000000   0.4811252   0.0000000), wk =   0.0208333
        k(   12) = (   0.0000000   0.5292377   0.0000000), wk =   0.0208333
        k(   13) = (   0.0000000  -0.5773503   0.0000000), wk =   0.0104167
        k(   14) = (   0.0416667   0.0721688   0.0000000), wk =   0.0208333
        k(   15) = (   0.0416667   0.1202813   0.0000000), wk =   0.0416667
        k(   16) = (   0.0416667   0.1683938   0.0000000), wk =   0.0416667
        k(   17) = (   0.0416667   0.2165064   0.0000000), wk =   0.0416667
        k(   18) = (   0.0416667   0.2646189   0.0000000), wk =   0.0416667
        k(   19) = (   0.0416667   0.3127314   0.0000000), wk =   0.0416667
        k(   20) = (   0.0416667   0.3608439   0.0000000), wk =   0.0416667
        k(   21) = (   0.0416667   0.4089564   0.0000000), wk =   0.0416667
        k(   22) = (   0.0416667   0.4570690   0.0000000), wk =   0.0416667
        k(   23) = (   0.0416667   0.5051815   0.0000000), wk =   0.0416667
        k(   24) = (   0.0416667   0.5532940   0.0000000), wk =   0.0416667
        k(   25) = (   0.0833333   0.1443376   0.0000000), wk =   0.0208333
        k(   26) = (   0.0833333   0.1924501   0.0000000), wk =   0.0416667
        k(   27) = (   0.0833333   0.2405626   0.0000000), wk =   0.0416667
        k(   28) = (   0.0833333   0.2886751   0.0000000), wk =   0.0416667
        k(   29) = (   0.0833333   0.3367877   0.0000000), wk =   0.0416667
        k(   30) = (   0.0833333   0.3849002   0.0000000), wk =   0.0416667
        k(   31) = (   0.0833333   0.4330127   0.0000000), wk =   0.0416667
        k(   32) = (   0.0833333   0.4811252   0.0000000), wk =   0.0416667
        k(   33) = (   0.0833333   0.5292377   0.0000000), wk =   0.0416667
        k(   34) = (   0.0833333   0.5773503   0.0000000), wk =   0.0208333
        k(   35) = (   0.1250000   0.2165064   0.0000000), wk =   0.0208333
        k(   36) = (   0.1250000   0.2646189   0.0000000), wk =   0.0416667
        k(   37) = (   0.1250000   0.3127314   0.0000000), wk =   0.0416667
        k(   38) = (   0.1250000   0.3608439   0.0000000), wk =   0.0416667
        k(   39) = (   0.1250000   0.4089564   0.0000000), wk =   0.0416667
        k(   40) = (   0.1250000   0.4570690   0.0000000), wk =   0.0416667
        k(   41) = (   0.1250000   0.5051815   0.0000000), wk =   0.0416667
        k(   42) = (   0.1250000   0.5532940   0.0000000), wk =   0.0416667
        k(   43) = (   0.1666667   0.2886751   0.0000000), wk =   0.0208333
        k(   44) = (   0.1666667   0.3367877   0.0000000), wk =   0.0416667
        k(   45) = (   0.1666667   0.3849002   0.0000000), wk =   0.0416667
        k(   46) = (   0.1666667   0.4330127   0.0000000), wk =   0.0416667
        k(   47) = (   0.1666667   0.4811252   0.0000000), wk =   0.0416667
        k(   48) = (   0.1666667   0.5292377   0.0000000), wk =   0.0416667
        k(   49) = (   0.1666667   0.5773503   0.0000000), wk =   0.0208333
        k(   50) = (   0.2083333   0.3608439   0.0000000), wk =   0.0208333
        k(   51) = (   0.2083333   0.4089564   0.0000000), wk =   0.0416667
        k(   52) = (   0.2083333   0.4570690   0.0000000), wk =   0.0416667
        k(   53) = (   0.2083333   0.5051815   0.0000000), wk =   0.0416667
        k(   54) = (   0.2083333   0.5532940   0.0000000), wk =   0.0416667
        k(   55) = (   0.2500000   0.4330127   0.0000000), wk =   0.0208333
        k(   56) = (   0.2500000   0.4811252   0.0000000), wk =   0.0416667
        k(   57) = (   0.2500000   0.5292377   0.0000000), wk =   0.0416667
        k(   58) = (   0.2500000   0.5773503   0.0000000), wk =   0.0208333
        k(   59) = (   0.2916667   0.5051815   0.0000000), wk =   0.0208333
        k(   60) = (   0.2916667   0.5532940   0.0000000), wk =   0.0416667
        k(   61) = (   0.3333333   0.5773503   0.0000000), wk =   0.0069444

                       cryst. coord.
        k(    1) = (   0.0000000   0.0000000   0.0000000), wk =   0.0034722
        k(    2) = (   0.0000000   0.0416667   0.0000000), wk =   0.0208333
        k(    3) = (   0.0000000   0.0833333   0.0000000), wk =   0.0208333
        k(    4) = (   0.0000000   0.1250000   0.0000000), wk =   0.0208333
        k(    5) = (   0.0000000   0.1666667   0.0000000), wk =   0.0208333
        k(    6) = (   0.0000000   0.2083333   0.0000000), wk =   0.0208333
        k(    7) = (   0.0000000   0.2500000   0.0000000), wk =   0.0208333
        k(    8) = (   0.0000000   0.2916667   0.0000000), wk =   0.0208333
        k(    9) = (   0.0000000   0.3333333   0.0000000), wk =   0.0208333
        k(   10) = (   0.0000000   0.3750000   0.0000000), wk =   0.0208333
        k(   11) = (   0.0000000   0.4166667   0.0000000), wk =   0.0208333
        k(   12) = (   0.0000000   0.4583333   0.0000000), wk =   0.0208333
        k(   13) = (   0.0000000  -0.5000000   0.0000000), wk =   0.0104167
        k(   14) = (   0.0416667   0.0416667   0.0000000), wk =   0.0208333
        k(   15) = (   0.0416667   0.0833333   0.0000000), wk =   0.0416667
        k(   16) = (   0.0416667   0.1250000   0.0000000), wk =   0.0416667
        k(   17) = (   0.0416667   0.1666667   0.0000000), wk =   0.0416667
        k(   18) = (   0.0416667   0.2083333   0.0000000), wk =   0.0416667
        k(   19) = (   0.0416667   0.2500000   0.0000000), wk =   0.0416667
        k(   20) = (   0.0416667   0.2916667   0.0000000), wk =   0.0416667
        k(   21) = (   0.0416667   0.3333333   0.0000000), wk =   0.0416667
        k(   22) = (   0.0416667   0.3750000   0.0000000), wk =   0.0416667
        k(   23) = (   0.0416667   0.4166667   0.0000000), wk =   0.0416667
        k(   24) = (   0.0416667   0.4583333   0.0000000), wk =   0.0416667
        k(   25) = (   0.0833333   0.0833333   0.0000000), wk =   0.0208333
        k(   26) = (   0.0833333   0.1250000   0.0000000), wk =   0.0416667
        k(   27) = (   0.0833333   0.1666667   0.0000000), wk =   0.0416667
        k(   28) = (   0.0833333   0.2083333   0.0000000), wk =   0.0416667
        k(   29) = (   0.0833333   0.2500000   0.0000000), wk =   0.0416667
        k(   30) = (   0.0833333   0.2916667   0.0000000), wk =   0.0416667
        k(   31) = (   0.0833333   0.3333333   0.0000000), wk =   0.0416667
        k(   32) = (   0.0833333   0.3750000   0.0000000), wk =   0.0416667
        k(   33) = (   0.0833333   0.4166667   0.0000000), wk =   0.0416667
        k(   34) = (   0.0833333   0.4583333   0.0000000), wk =   0.0208333
        k(   35) = (   0.1250000   0.1250000   0.0000000), wk =   0.0208333
        k(   36) = (   0.1250000   0.1666667   0.0000000), wk =   0.0416667
        k(   37) = (   0.1250000   0.2083333   0.0000000), wk =   0.0416667
        k(   38) = (   0.1250000   0.2500000   0.0000000), wk =   0.0416667
        k(   39) = (   0.1250000   0.2916667   0.0000000), wk =   0.0416667
        k(   40) = (   0.1250000   0.3333333   0.0000000), wk =   0.0416667
        k(   41) = (   0.1250000   0.3750000   0.0000000), wk =   0.0416667
        k(   42) = (   0.1250000   0.4166667   0.0000000), wk =   0.0416667
        k(   43) = (   0.1666667   0.1666667   0.0000000), wk =   0.0208333
        k(   44) = (   0.1666667   0.2083333   0.0000000), wk =   0.0416667
        k(   45) = (   0.1666667   0.2500000   0.0000000), wk =   0.0416667
        k(   46) = (   0.1666667   0.2916667   0.0000000), wk =   0.0416667
        k(   47) = (   0.1666667   0.3333333   0.0000000), wk =   0.0416667
        k(   48) = (   0.1666667   0.3750000   0.0000000), wk =   0.0416667
        k(   49) = (   0.1666667   0.4166667   0.0000000), wk =   0.0208333
        k(   50) = (   0.2083333   0.2083333   0.0000000), wk =   0.0208333
        k(   51) = (   0.2083333   0.2500000   0.0000000), wk =   0.0416667
        k(   52) = (   0.2083333   0.2916667   0.0000000), wk =   0.0416667
        k(   53) = (   0.2083333   0.3333333   0.0000000), wk =   0.0416667
        k(   54) = (   0.2083333   0.3750000   0.0000000), wk =   0.0416667
        k(   55) = (   0.2500000   0.2500000   0.0000000), wk =   0.0208333
        k(   56) = (   0.2500000   0.2916667   0.0000000), wk =   0.0416667
        k(   57) = (   0.2500000   0.3333333   0.0000000), wk =   0.0416667
        k(   58) = (   0.2500000   0.3750000   0.0000000), wk =   0.0208333
        k(   59) = (   0.2916667   0.2916667   0.0000000), wk =   0.0208333
        k(   60) = (   0.2916667   0.3333333   0.0000000), wk =   0.0416667
        k(   61) = (   0.3333333   0.3333333   0.0000000), wk =   0.0069444

     Dense  grid:  2695269 G-vectors     FFT dimensions: ( 180, 180, 216)

     Smooth grid:  1010563 G-vectors     FFT dimensions: ( 125, 125, 150)

     Dynamical RAM for                 wfc:      62.65 MB

     Dynamical RAM for     wfc (w. buffer):      62.65 MB

     Dynamical RAM for           str. fact:      10.28 MB

     Dynamical RAM for           local pot:       0.00 MB

     Dynamical RAM for          nlocal pot:     208.18 MB

     Dynamical RAM for                qrad:       3.59 MB

     Dynamical RAM for          rho,v,vnew:      35.45 MB

     Dynamical RAM for           G-vectors:      20.24 MB

     Dynamical RAM for          h,s,v(r/c):     111.40 MB

     Dynamical RAM for          <psi|beta>:       3.43 MB

     Dynamical RAM for                 psi:     751.77 MB

     Dynamical RAM for                hpsi:     751.77 MB

     Dynamical RAM for                spsi:     751.77 MB

     Dynamical RAM for      wfcinit/wfcrot:     126.84 MB

     Dynamical RAM for           addusdens:    1120.70 MB

     Estimated static dynamical RAM per process >     389.18 MB

     Estimated max dynamical RAM per process >       2.69 GB

     Estimated total dynamical RAM >      21.56 GB

     The potential is recalculated from file :
     /home/nihal/Desktop/Otptf/Trial_2.save/charge-density


     negative rho (up, down):  2.808E-03 0.000E+00
     Starting wfcs are  336 randomized atomic wfcs

     Band Structure Calculation
     Davidson diagonalization with overlap

     Computing kpt #:     1  of    61
     total cpu time spent up to now is      178.5 secs

     Computing kpt #:     2  of    61
     total cpu time spent up to now is      356.1 secs

     Computing kpt #:     3  of    61
     total cpu time spent up to now is      586.4 secs

     Computing kpt #:     4  of    61
     total cpu time spent up to now is      816.7 secs

     Computing kpt #:     5  of    61
     total cpu time spent up to now is     1047.7 secs

     Computing kpt #:     6  of    61
     total cpu time spent up to now is     1260.7 secs

     Computing kpt #:     7  of    61
     total cpu time spent up to now is     1473.8 secs

     Computing kpt #:     8  of    61
     total cpu time spent up to now is     1687.8 secs

     Computing kpt #:     9  of    61
     total cpu time spent up to now is   -17899.0 secs

     Computing kpt #:    10  of    61
     total cpu time spent up to now is   -17684.2 secs

     Computing kpt #:    11  of    61
     total cpu time spent up to now is   -17488.0 secs

     Computing kpt #:    12  of    61
     total cpu time spent up to now is   -17291.5 secs

     Computing kpt #:    13  of    61
     total cpu time spent up to now is   -17113.2 secs

     Computing kpt #:    14  of    61
     total cpu time spent up to now is   -16935.5 secs

     Computing kpt #:    15  of    61
     total cpu time spent up to now is   -16706.1 secs

     Computing kpt #:    16  of    61
     total cpu time spent up to now is   -16476.2 secs

     Computing kpt #:    17  of    61
     total cpu time spent up to now is   -16245.4 secs

     Computing kpt #:    18  of    61
     total cpu time spent up to now is   -16031.9 secs

     Computing kpt #:    19  of    61
     total cpu time spent up to now is   -15818.0 secs

     Computing kpt #:    20  of    61
     total cpu time spent up to now is   -15604.7 secs

     Computing kpt #:    21  of    61
     total cpu time spent up to now is   -15390.7 secs

     Computing kpt #:    22  of    61
     total cpu time spent up to now is   -15175.5 secs

     Computing kpt #:    23  of    61
     total cpu time spent up to now is   -14979.2 secs

     Computing kpt #:    24  of    61
     total cpu time spent up to now is   -14782.9 secs

     Computing kpt #:    25  of    61
     total cpu time spent up to now is   -14552.2 secs

     Computing kpt #:    26  of    61
     total cpu time spent up to now is   -14339.2 secs

     Computing kpt #:    27  of    61
     total cpu time spent up to now is   -14125.9 secs

     Computing kpt #:    28  of    61
     total cpu time spent up to now is   -13895.0 secs

     Computing kpt #:    29  of    61
     total cpu time spent up to now is   -13663.6 secs

     Computing kpt #:    30  of    61
     total cpu time spent up to now is   -13449.4 secs

     Computing kpt #:    31  of    61
     total cpu time spent up to now is   -13252.5 secs

     Computing kpt #:    32  of    61
     total cpu time spent up to now is   -13056.3 secs

     Computing kpt #:    33  of    61
     total cpu time spent up to now is   -12859.4 secs

     Computing kpt #:    34  of    61
     total cpu time spent up to now is   -12662.6 secs

     Computing kpt #:    35  of    61
     total cpu time spent up to now is   -12448.9 secs

     Computing kpt #:    36  of    61
     total cpu time spent up to now is   -12235.2 secs

     Computing kpt #:    37  of    61
     total cpu time spent up to now is   -12003.7 secs

     Computing kpt #:    38  of    61
     total cpu time spent up to now is   -11789.3 secs

     Computing kpt #:    39  of    61
     total cpu time spent up to now is   -11574.6 secs

     Computing kpt #:    40  of    61
     total cpu time spent up to now is   -11378.2 secs

     Computing kpt #:    41  of    61
     total cpu time spent up to now is   -11181.3 secs

     Computing kpt #:    42  of    61
     total cpu time spent up to now is   -10984.5 secs

     Computing kpt #:    43  of    61
     total cpu time spent up to now is   -10770.7 secs

     Computing kpt #:    44  of    61
     total cpu time spent up to now is   -10556.5 secs

     Computing kpt #:    45  of    61
     total cpu time spent up to now is   -10341.3 secs

     Computing kpt #:    46  of    61
     total cpu time spent up to now is   -10145.1 secs

     Computing kpt #:    47  of    61
     total cpu time spent up to now is    -9947.6 secs

     Computing kpt #:    48  of    61
     total cpu time spent up to now is    -9750.9 secs

     Computing kpt #:    49  of    61
     total cpu time spent up to now is    -9553.7 secs

     Computing kpt #:    50  of    61
     total cpu time spent up to now is    -9339.3 secs

     Computing kpt #:    51  of    61
     total cpu time spent up to now is    -9124.8 secs

     Computing kpt #:    52  of    61
     total cpu time spent up to now is    -8927.7 secs

     Computing kpt #:    53  of    61
     total cpu time spent up to now is    -8730.8 secs

     Computing kpt #:    54  of    61
     total cpu time spent up to now is    -8534.4 secs

     Computing kpt #:    55  of    61
     total cpu time spent up to now is    -8283.3 secs

     Computing kpt #:    56  of    61
     total cpu time spent up to now is    -8086.2 secs

     Computing kpt #:    57  of    61
     total cpu time spent up to now is    -7889.1 secs

     Computing kpt #:    58  of    61
     total cpu time spent up to now is    -7692.0 secs

     Computing kpt #:    59  of    61
     total cpu time spent up to now is    -7494.9 secs

     Computing kpt #:    60  of    61
     total cpu time spent up to now is    -7297.7 secs

     Computing kpt #:    61  of    61
     total cpu time spent up to now is    -7030.1 secs

     ethr =  2.40E-10,  avg # of iterations = 12.7

     total cpu time spent up to now is    -7030.1 secs

     End of band structure calculation

          k = 0.0000 0.0000 0.0000 (126355 PWs)   bands (ev):

   -60.2546 -60.2366 -60.2365 -60.2365 -60.2365 -60.2365 -60.2365 -60.2185
   -60.2185 -60.2184 -60.2184 -60.2184 -60.2184 -60.2184 -60.2184 -60.2184
   -34.5463 -34.5463 -34.5463 -34.4800 -34.4800 -34.4800 -34.4800 -34.4800
   -34.4800 -34.3816 -34.3684 -34.3684 -34.3684 -34.3684 -34.3684 -34.3684
   -34.3453 -34.3453 -34.3453 -34.3453 -34.3453 -34.3453 -34.3377 -34.3377
   -34.3377 -34.3377 -34.3377 -34.3377 -34.3089 -34.3088 -34.3088 -34.3088
   -34.3088 -34.3088 -34.3088 -34.3088 -34.3088 -34.2691 -34.2691 -34.2691
   -34.2274 -34.2274 -34.2274 -34.2274 -34.2274 -34.2274 -34.1854 -34.1854
   -13.4150 -12.6013 -12.6013 -12.6013 -12.6013 -12.6013 -12.6013 -12.1074
   -11.7766 -11.7766 -11.7766 -11.7766 -11.7766 -11.7765 -11.6012 -11.6012
   -11.6012 -11.6012 -11.6012 -11.6012 -11.5743 -11.5743 -11.5743 -11.3775
   -11.3775 -11.3775 -11.3564 -11.3564 -11.3564 -11.3564 -11.3564 -11.3563
    -5.0851  -5.0851  -5.0850  -4.9329  -4.4332  -4.4332  -4.4332  -4.4332
    -4.4332  -4.4332  -4.3193  -4.3193  -4.3192  -4.3192  -4.3192  -4.3192
    -4.2383  -4.2383  -4.2383  -4.2383  -4.2382  -4.2382  -4.0960  -4.0960
    -4.0960  -3.3962  -3.3962  -3.3962  -3.1560  -3.1560  -3.1560  -3.1560
    -3.1560  -3.1560  -2.9492  -2.9492  -2.9492  -2.9492  -2.9492  -2.9491
    -2.8976  -2.8976  -2.8976  -2.8976  -2.8976  -2.8976  -2.5551  -2.5551
    -2.5551  -2.5551  -2.5551  -2.5551  -2.5124  -2.5124  -2.5124  -2.2463
    -2.2463  -2.2463  -2.2463  -2.2463  -2.2463  -1.9725  -1.9725  -1.8394
    -1.8394  -1.8394  -1.8394  -1.8394  -1.8394  -1.1976  -1.1976  -1.1976
    -1.1573  -1.1573  -1.1573  -1.1573  -1.1573  -1.1573  -1.0967  -0.9680
    -0.9680  -0.9680  -0.9680  -0.9680  -0.9680  -0.8717  -0.8717  -0.6593
    -0.6593  -0.6593  -0.6593  -0.6593  -0.6593  -0.3490  -0.3490  -0.3490
    -0.0555  -0.0555  -0.0555  -0.0555  -0.0555  -0.0555   0.0247   0.0247
     0.0247   0.1237   0.1237   0.1237   0.1237   0.1237   0.1237   0.6716
     2.8058   2.8058   2.8058   2.8058   2.8058   2.8059   2.8270   2.8270
     2.8270   2.8270   2.8270   2.8270   2.8597   2.8597   2.8597   2.9919
     2.9919   2.9919   2.9919   2.9919   2.9919   3.3742   3.3742   3.3742
     3.3885   3.3885   3.4365   3.4365   3.4365   3.4365   3.4365   3.4365
     3.5315   3.5315   3.5315   3.5315   3.5315   3.5315   3.6432   3.6432
     3.7477   3.7477   3.7477   3.7477   3.7477   3.7477   4.4037   4.4037
     4.4037   4.4037   4.4037   4.4037

     occupation numbers 
     1.0000   1.0000   1.0000   1.0000   1.0000   1.0000   1.0000   1.0000
     1.0000   1.0000   1.0000   1.0000   1.0000   1.0000   1.0000   1.0000
     1.0000   1.0000   1.0000   1.0000   1.0000   1.0000   1.0000   1.0000
     1.0000   1.0000   1.0000   1.0000   1.0000   1.0000   1.0000   1.0000
     1.0000   1.0000   1.0000   1.0000   1.0000   1.0000   1.0000   1.0000
     1.0000   1.0000   1.0000   1.0000   1.0000   1.0000   1.0000   1.0000
     1.0000   1.0000   1.0000   1.0000   1.0000   1.0000   1.0000   1.0000
     1.0000   1.0000   1.0000   1.0000   1.0000   1.0000   1.0000   1.0000
     1.0000   1.0000   1.0000   1.0000   1.0000   1.0000   1.0000   1.0000
     1.0000   1.0000   1.0000   1.0000   1.0000   1.0000   1.0000   1.0000
     1.0000   1.0000   1.0000   1.0000   1.0000   1.0000   1.0000   1.0000
     1.0000   1.0000   1.0000   1.0000   1.0000   1.0000   1.0000   1.0000
     1.0000   1.0000   1.0000   1.0000   1.0000   1.0000   1.0000   1.0000
     1.0000   1.0000   1.0000   1.0000   1.0000   1.0000   1.0000   1.0000
     1.0000   1.0000   1.0000   1.0000   1.0000   1.0000   1.0000   1.0000
     1.0000   1.0000   1.0000   1.0000   1.0000   1.0000   1.0000   1.0000
     1.0000   1.0000   1.0000   1.0000   1.0000   1.0000   1.0000   1.0000
     1.0000   1.0000   1.0000   1.0000   1.0000   1.0000   1.0000   1.0000
     1.0000   1.0000   1.0000   1.0000   1.0000   1.0000   1.0000   1.0000
     1.0000   1.0000   1.0000   1.0000   1.0000   1.0000   1.0000   1.0000
     1.0000   1.0000   1.0000   1.0000   1.0000   1.0000   1.0000   1.0000
     1.0000   1.0000   1.0000   1.0000   1.0000   1.0000   1.0000   1.0000
     1.0000   1.0000   1.0000   1.0000   1.0000   1.0000   1.0000   1.0000
     1.0000   1.0000   1.0000   1.0000   1.0000   1.0000   1.0000   1.0000
     1.0000   1.0000   1.0000   1.0000   1.0000   1.0000   1.0000   1.0000
     1.0000   1.0000   1.0000   1.0000   1.0000   1.0000   1.0000   1.0000
     0.0000   0.0000   0.0000   0.0000   0.0000   0.0000   0.0000   0.0000
     0.0000   0.0000   0.0000   0.0000   0.0000   0.0000   0.0000   0.0000
     0.0000   0.0000   0.0000   0.0000   0.0000   0.0000   0.0000   0.0000
     0.0000   0.0000   0.0000   0.0000   0.0000   0.0000   0.0000   0.0000
     0.0000   0.0000   0.0000   0.0000   0.0000   0.0000   0.0000   0.0000
     0.0000   0.0000   0.0000   0.0000   0.0000   0.0000   0.0000   0.0000
     0.0000   0.0000   0.0000   0.0000

          k = 0.0000 0.0481 0.0000 (126353 PWs)   bands (ev):

   -60.2545 -60.2377 -60.2371 -60.2371 -60.2359 -60.2359 -60.2354 -60.2191
   -60.2190 -60.2185 -60.2185 -60.2184 -60.2184 -60.2184 -60.2179 -60.2179
   -34.5461 -34.5461 -34.5459 -34.4813 -34.4813 -34.4804 -34.4804 -34.4783
   -34.4783 -34.3815 -34.3802 -34.3744 -34.3744 -34.3626 -34.3626 -34.3566
   -34.3477 -34.3464 -34.3464 -34.3441 -34.3441 -34.3434 -34.3434 -34.3429
   -34.3373 -34.3373 -34.3319 -34.3319 -34.3101 -34.3101 -34.3089 -34.3088
   -34.3088 -34.3088 -34.3088 -34.3077 -34.3077 -34.2693 -34.2693 -34.2690
   -34.2301 -34.2289 -34.2289 -34.2262 -34.2262 -34.2247 -34.1858 -34.1855
   -13.4134 -12.6594 -12.6295 -12.6295 -12.5710 -12.5710 -12.5424 -12.1067
   -11.7999 -11.7879 -11.7879 -11.7644 -11.7644 -11.7529 -11.6391 -11.6391
   -11.6011 -11.6011 -11.5769 -11.5744 -11.5744 -11.5654 -11.5654 -11.3784
   -11.3774 -11.3774 -11.3730 -11.3730 -11.3565 -11.3564 -11.3406 -11.3405
    -5.0828  -5.0828  -5.0825  -4.9310  -4.4420  -4.4420  -4.4368  -4.4367
    -4.4220  -4.4219  -4.3241  -4.3234  -4.3199  -4.3199  -4.3195  -4.3195
    -4.2961  -4.2961  -4.2377  -4.2377  -4.1768  -4.1768  -4.0967  -4.0967
    -4.0934  -3.3953  -3.3953  -3.3949  -3.1829  -3.1705  -3.1705  -3.1400
    -3.1400  -3.1215  -2.9772  -2.9558  -2.9558  -2.9523  -2.9523  -2.9523
    -2.9523  -2.9373  -2.9373  -2.8573  -2.8573  -2.8173  -2.5754  -2.5754
    -2.5547  -2.5547  -2.5326  -2.5326  -2.5123  -2.5123  -2.5111  -2.3159
    -2.3159  -2.2340  -2.2340  -2.1702  -2.1702  -1.9763  -1.9708  -1.8896
    -1.8707  -1.8707  -1.8201  -1.8201  -1.7880  -1.2120  -1.1970  -1.1970
    -1.1967  -1.1856  -1.1856  -1.1312  -1.1312  -1.1177  -1.1025  -1.0128
    -1.0128  -0.9693  -0.9693  -0.9240  -0.9240  -0.8744  -0.8530  -0.6982
    -0.6744  -0.6744  -0.6358  -0.6357  -0.6211  -0.3610  -0.3610  -0.3505
    -0.1069  -0.0818  -0.0817  -0.0289  -0.0289  -0.0011   0.0216   0.0300
     0.0300   0.0872   0.0872   0.1242   0.1242   0.1623   0.1623   0.6709
     2.7790   2.7790   2.8065   2.8065   2.8216   2.8216   2.8234   2.8258
     2.8258   2.8266   2.8266   2.8350   2.8592   2.8603   2.8603   2.9651
     2.9808   2.9808   3.0077   3.0077   3.0207   3.3716   3.3740   3.3740
     3.3779   3.3779   3.3858   3.3915   3.4360   3.4360   3.4750   3.4992
     3.4992   3.4993   3.4993   3.5570   3.5570   3.5906   3.6381   3.6413
     3.7348   3.7348   3.7517   3.7517   3.7596   3.7596   4.3551   4.3833
     4.3833   4.4309   4.4309   4.4503

     occupation numbers 
     1.0000   1.0000   1.0000   1.0000   1.0000   1.0000   1.0000   1.0000
     1.0000   1.0000   1.0000   1.0000   1.0000   1.0000   1.0000   1.0000
     1.0000   1.0000   1.0000   1.0000   1.0000   1.0000   1.0000   1.0000
     1.0000   1.0000   1.0000   1.0000   1.0000   1.0000   1.0000   1.0000
     1.0000   1.0000   1.0000   1.0000   1.0000   1.0000   1.0000   1.0000
     1.0000   1.0000   1.0000   1.0000   1.0000   1.0000   1.0000   1.0000
     1.0000   1.0000   1.0000   1.0000   1.0000   1.0000   1.0000   1.0000
     1.0000   1.0000   1.0000   1.0000   1.0000   1.0000   1.0000   1.0000
     1.0000   1.0000   1.0000   1.0000   1.0000   1.0000   1.0000   1.0000
     1.0000   1.0000   1.0000   1.0000   1.0000   1.0000   1.0000   1.0000
     1.0000   1.0000   1.0000   1.0000   1.0000   1.0000   1.0000   1.0000
     1.0000   1.0000   1.0000   1.0000   1.0000   1.0000   1.0000   1.0000
     1.0000   1.0000   1.0000   1.0000   1.0000   1.0000   1.0000   1.0000
     1.0000   1.0000   1.0000   1.0000   1.0000   1.0000   1.0000   1.0000
     1.0000   1.0000   1.0000   1.0000   1.0000   1.0000   1.0000   1.0000
     1.0000   1.0000   1.0000   1.0000   1.0000   1.0000   1.0000   1.0000
     1.0000   1.0000   1.0000   1.0000   1.0000   1.0000   1.0000   1.0000
     1.0000   1.0000   1.0000   1.0000   1.0000   1.0000   1.0000   1.0000
     1.0000   1.0000   1.0000   1.0000   1.0000   1.0000   1.0000   1.0000
     1.0000   1.0000   1.0000   1.0000   1.0000   1.0000   1.0000   1.0000
     1.0000   1.0000   1.0000   1.0000   1.0000   1.0000   1.0000   1.0000
     1.0000   1.0000   1.0000   1.0000   1.0000   1.0000   1.0000   1.0000
     1.0000   1.0000   1.0000   1.0000   1.0000   1.0000   1.0000   1.0000
     1.0000   1.0000   1.0000   1.0000   1.0000   1.0000   1.0000   1.0000
     1.0000   1.0000   1.0000   1.0000   1.0000   1.0000   1.0000   1.0000
     1.0000   1.0000   1.0000   1.0000   1.0000   1.0000   1.0000   1.0000
     0.0000   0.0000   0.0000   0.0000   0.0000   0.0000   0.0000   0.0000
     0.0000   0.0000   0.0000   0.0000   0.0000   0.0000   0.0000   0.0000
     0.0000   0.0000   0.0000   0.0000   0.0000   0.0000   0.0000   0.0000
     0.0000   0.0000   0.0000   0.0000   0.0000   0.0000   0.0000   0.0000
     0.0000   0.0000   0.0000   0.0000   0.0000   0.0000   0.0000   0.0000
     0.0000   0.0000   0.0000   0.0000   0.0000   0.0000   0.0000   0.0000
     0.0000   0.0000   0.0000   0.0000

          k = 0.0000 0.0962 0.0000 (126291 PWs)   bands (ev):

   -60.2544 -60.2389 -60.2376 -60.2376 -60.2353 -60.2353 -60.2342 -60.2197
   -60.2197 -60.2186 -60.2185 -60.2184 -60.2184 -60.2184 -60.2173 -60.2173
   -34.5454 -34.5454 -34.5448 -34.4824 -34.4824 -34.4817 -34.4816 -34.4764
   -34.4764 -34.3919 -34.3813 -34.3805 -34.3805 -34.3570 -34.3570 -34.3500
   -34.3488 -34.3488 -34.3475 -34.3475 -34.3448 -34.3428 -34.3428 -34.3405
   -34.3360 -34.3360 -34.3259 -34.3259 -34.3114 -34.3114 -34.3091 -34.3088
   -34.3088 -34.3088 -34.3088 -34.3066 -34.3066 -34.2700 -34.2700 -34.2687
   -34.2329 -34.2308 -34.2308 -34.2253 -34.2253 -34.2219 -34.1870 -34.1857
   -13.4086 -12.7164 -12.6556 -12.6555 -12.5387 -12.5387 -12.4828 -12.1047
   -11.8230 -11.7983 -11.7983 -11.7513 -11.7513 -11.7290 -11.6789 -11.6789
   -11.6008 -11.6008 -11.5846 -11.5748 -11.5748 -11.5319 -11.5319 -11.3904
   -11.3904 -11.3813 -11.3771 -11.3771 -11.3567 -11.3567 -11.3257 -11.3257
    -5.0761  -5.0761  -5.0748  -4.9254  -4.4484  -4.4484  -4.4473  -4.4473
    -4.4085  -4.4084  -4.3500  -4.3500  -4.3381  -4.3360  -4.3215  -4.3215
    -4.3204  -4.3204  -4.2361  -4.2361  -4.1122  -4.1122  -4.0987  -4.0987
    -4.0857  -3.3927  -3.3927  -3.3910  -3.2025  -3.1830  -3.1830  -3.1229
    -3.1229  -3.0795  -3.0559  -2.9763  -2.9763  -2.9743  -2.9742  -2.9628
    -2.9628  -2.9606  -2.9605  -2.8162  -2.8162  -2.7364  -2.5930  -2.5930
    -2.5536  -2.5536  -2.5120  -2.5120  -2.5084  -2.5084  -2.5073  -2.3771
    -2.3771  -2.1986  -2.1986  -2.0893  -2.0893  -1.9875  -1.9658  -1.9385
    -1.9133  -1.9133  -1.8129  -1.8129  -1.7358  -1.2664  -1.2150  -1.2150
    -1.1952  -1.1952  -1.1939  -1.1675  -1.1085  -1.1085  -1.0580  -1.0579
    -1.0480  -0.9733  -0.9733  -0.8825  -0.8814  -0.8814  -0.8099  -0.7371
    -0.6814  -0.6814  -0.6041  -0.6041  -0.5840  -0.3949  -0.3948  -0.3552
    -0.1542  -0.1070  -0.1070  -0.0027  -0.0027   0.0124   0.0440   0.0440
     0.0530   0.0530   0.0553   0.1255   0.1255   0.2026   0.2026   0.6687
     2.7468   2.7468   2.8085   2.8085   2.8131   2.8131   2.8184   2.8184
     2.8248   2.8372   2.8372   2.8472   2.8576   2.8618   2.8618   2.9404
     2.9770   2.9770   3.0253   3.0253   3.0513   3.3255   3.3255   3.3640
     3.3735   3.3735   3.3778   3.4005   3.4217   3.4346   3.4346   3.4608
     3.4608   3.5643   3.5643   3.5756   3.5756   3.6231   3.6356   3.6516
     3.7211   3.7211   3.7638   3.7638   3.7704   3.7704   4.3047   4.3694
     4.3694   4.4645   4.4645   4.4939

     occupation numbers 
     1.0000   1.0000   1.0000   1.0000   1.0000   1.0000   1.0000   1.0000
     1.0000   1.0000   1.0000   1.0000   1.0000   1.0000   1.0000   1.0000
     1.0000   1.0000   1.0000   1.0000   1.0000   1.0000   1.0000   1.0000
     1.0000   1.0000   1.0000   1.0000   1.0000   1.0000   1.0000   1.0000
     1.0000   1.0000   1.0000   1.0000   1.0000   1.0000   1.0000   1.0000
     1.0000   1.0000   1.0000   1.0000   1.0000   1.0000   1.0000   1.0000
     1.0000   1.0000   1.0000   1.0000   1.0000   1.0000   1.0000   1.0000
     1.0000   1.0000   1.0000   1.0000   1.0000   1.0000   1.0000   1.0000
     1.0000   1.0000   1.0000   1.0000   1.0000   1.0000   1.0000   1.0000
     1.0000   1.0000   1.0000   1.0000   1.0000   1.0000   1.0000   1.0000
     1.0000   1.0000   1.0000   1.0000   1.0000   1.0000   1.0000   1.0000
     1.0000   1.0000   1.0000   1.0000   1.0000   1.0000   1.0000   1.0000
     1.0000   1.0000   1.0000   1.0000   1.0000   1.0000   1.0000   1.0000
     1.0000   1.0000   1.0000   1.0000   1.0000   1.0000   1.0000   1.0000
     1.0000   1.0000   1.0000   1.0000   1.0000   1.0000   1.0000   1.0000
     1.0000   1.0000   1.0000   1.0000   1.0000   1.0000   1.0000   1.0000
     1.0000   1.0000   1.0000   1.0000   1.0000   1.0000   1.0000   1.0000
     1.0000   1.0000   1.0000   1.0000   1.0000   1.0000   1.0000   1.0000
     1.0000   1.0000   1.0000   1.0000   1.0000   1.0000   1.0000   1.0000
     1.0000   1.0000   1.0000   1.0000   1.0000   1.0000   1.0000   1.0000
     1.0000   1.0000   1.0000   1.0000   1.0000   1.0000   1.0000   1.0000
     1.0000   1.0000   1.0000   1.0000   1.0000   1.0000   1.0000   1.0000
     1.0000   1.0000   1.0000   1.0000   1.0000   1.0000   1.0000   1.0000
     1.0000   1.0000   1.0000   1.0000   1.0000   1.0000   1.0000   1.0000
     1.0000   1.0000   1.0000   1.0000   1.0000   1.0000   1.0000   1.0000
     1.0000   1.0000   1.0000   1.0000   1.0000   1.0000   1.0000   1.0000
     0.0000   0.0000   0.0000   0.0000   0.0000   0.0000   0.0000   0.0000
     0.0000   0.0000   0.0000   0.0000   0.0000   0.0000   0.0000   0.0000
     0.0000   0.0000   0.0000   0.0000   0.0000   0.0000   0.0000   0.0000
     0.0000   0.0000   0.0000   0.0000   0.0000   0.0000   0.0000   0.0000
     0.0000   0.0000   0.0000   0.0000   0.0000   0.0000   0.0000   0.0000
     0.0000   0.0000   0.0000   0.0000   0.0000   0.0000   0.0000   0.0000
     0.0000   0.0000   0.0000   0.0000

          k = 0.0000 0.1443 0.0000 (126307 PWs)   bands (ev):

   -60.2542 -60.2401 -60.2381 -60.2381 -60.2346 -60.2346 -60.2330 -60.2204
   -60.2204 -60.2188 -60.2185 -60.2184 -60.2184 -60.2184 -60.2168 -60.2168
   -34.5444 -34.5444 -34.5429 -34.4836 -34.4836 -34.4832 -34.4832 -34.4741
   -34.4741 -34.4035 -34.3866 -34.3866 -34.3809 -34.3540 -34.3540 -34.3524
   -34.3516 -34.3516 -34.3485 -34.3485 -34.3414 -34.3414 -34.3382 -34.3340
   -34.3340 -34.3331 -34.3199 -34.3199 -34.3127 -34.3127 -34.3095 -34.3088
   -34.3088 -34.3088 -34.3088 -34.3056 -34.3056 -34.2711 -34.2711 -34.2683
   -34.2356 -34.2330 -34.2330 -34.2246 -34.2246 -34.2192 -34.1889 -34.1862
   -13.4006 -12.7722 -12.6793 -12.6793 -12.5045 -12.5045 -12.4229 -12.1015
   -11.8455 -11.8078 -11.8078 -11.7375 -11.7374 -11.7203 -11.7203 -11.7051
   -11.6002 -11.6002 -11.5974 -11.5754 -11.5753 -11.5008 -11.5008 -11.4085
   -11.4085 -11.3860 -11.3767 -11.3767 -11.3572 -11.3572 -11.3119 -11.3119
    -5.0650  -5.0650  -5.0620  -4.9162  -4.4646  -4.4645  -4.4522  -4.4522
    -4.3997  -4.3997  -4.3929  -4.3929  -4.3607  -4.3562  -4.3243  -4.3242
    -4.3218  -4.3218  -4.2334  -4.2334  -4.1021  -4.1021  -4.0728  -4.0449
    -4.0449  -3.3883  -3.3883  -3.3846  -3.2158  -3.1931  -3.1931  -3.1335
    -3.1053  -3.1053  -3.0306  -3.0150  -3.0150  -3.0012  -3.0012  -2.9813
    -2.9813  -2.9729  -2.9729  -2.7746  -2.7746  -2.6552  -2.6074  -2.6074
    -2.5517  -2.5517  -2.5117  -2.5117  -2.5010  -2.4830  -2.4830  -2.4287
    -2.4287  -2.1439  -2.1439  -2.0062  -2.0053  -2.0053  -1.9860  -1.9653
    -1.9653  -1.9574  -1.8168  -1.8168  -1.6827  -1.3202  -1.2444  -1.2444
    -1.2306  -1.1922  -1.1922  -1.1893  -1.1027  -1.1027  -1.0904  -1.0904
    -0.9939  -0.9798  -0.9798  -0.8958  -0.8408  -0.8408  -0.7757  -0.7583
    -0.6816  -0.6816  -0.5659  -0.5658  -0.5487  -0.4462  -0.4462  -0.3630
    -0.1965  -0.1302  -0.1302  -0.0026   0.0214   0.0214   0.0225   0.0225
     0.0626   0.0626   0.1124   0.1277   0.1277   0.2438   0.2438   0.6649
     2.7108   2.7108   2.8025   2.8025   2.8031   2.8031   2.8116   2.8117
     2.8314   2.8389   2.8389   2.8550   2.8630   2.8642   2.8642   2.9180
     2.9808   2.9808   3.0429   3.0429   3.0836   3.2812   3.2812   3.3517
     3.3648   3.3724   3.3729   3.3729   3.4153   3.4177   3.4177   3.4322
     3.4322   3.5879   3.5879   3.5987   3.6261   3.6298   3.6298   3.7068
     3.7068   3.7138   3.7800   3.7800   3.7838   3.7838   4.2528   4.3612
     4.3612   4.4849   4.5036   4.5036

     occupation numbers 
     1.0000   1.0000   1.0000   1.0000   1.0000   1.0000   1.0000   1.0000
     1.0000   1.0000   1.0000   1.0000   1.0000   1.0000   1.0000   1.0000
     1.0000   1.0000   1.0000   1.0000   1.0000   1.0000   1.0000   1.0000
     1.0000   1.0000   1.0000   1.0000   1.0000   1.0000   1.0000   1.0000
     1.0000   1.0000   1.0000   1.0000   1.0000   1.0000   1.0000   1.0000
     1.0000   1.0000   1.0000   1.0000   1.0000   1.0000   1.0000   1.0000
     1.0000   1.0000   1.0000   1.0000   1.0000   1.0000   1.0000   1.0000
     1.0000   1.0000   1.0000   1.0000   1.0000   1.0000   1.0000   1.0000
     1.0000   1.0000   1.0000   1.0000   1.0000   1.0000   1.0000   1.0000
     1.0000   1.0000   1.0000   1.0000   1.0000   1.0000   1.0000   1.0000
     1.0000   1.0000   1.0000   1.0000   1.0000   1.0000   1.0000   1.0000
     1.0000   1.0000   1.0000   1.0000   1.0000   1.0000   1.0000   1.0000
     1.0000   1.0000   1.0000   1.0000   1.0000   1.0000   1.0000   1.0000
     1.0000   1.0000   1.0000   1.0000   1.0000   1.0000   1.0000   1.0000
     1.0000   1.0000   1.0000   1.0000   1.0000   1.0000   1.0000   1.0000
     1.0000   1.0000   1.0000   1.0000   1.0000   1.0000   1.0000   1.0000
     1.0000   1.0000   1.0000   1.0000   1.0000   1.0000   1.0000   1.0000
     1.0000   1.0000   1.0000   1.0000   1.0000   1.0000   1.0000   1.0000
     1.0000   1.0000   1.0000   1.0000   1.0000   1.0000   1.0000   1.0000
     1.0000   1.0000   1.0000   1.0000   1.0000   1.0000   1.0000   1.0000
     1.0000   1.0000   1.0000   1.0000   1.0000   1.0000   1.0000   1.0000
     1.0000   1.0000   1.0000   1.0000   1.0000   1.0000   1.0000   1.0000
     1.0000   1.0000   1.0000   1.0000   1.0000   1.0000   1.0000   1.0000
     1.0000   1.0000   1.0000   1.0000   1.0000   1.0000   1.0000   1.0000
     1.0000   1.0000   1.0000   1.0000   1.0000   1.0000   1.0000   1.0000
     1.0000   1.0000   1.0000   1.0000   1.0000   1.0000   1.0000   1.0000
     0.0000   0.0000   0.0000   0.0000   0.0000   0.0000   0.0000   0.0000
     0.0000   0.0000   0.0000   0.0000   0.0000   0.0000   0.0000   0.0000
     0.0000   0.0000   0.0000   0.0000   0.0000   0.0000   0.0000   0.0000
     0.0000   0.0000   0.0000   0.0000   0.0000   0.0000   0.0000   0.0000
     0.0000   0.0000   0.0000   0.0000   0.0000   0.0000   0.0000   0.0000
     0.0000   0.0000   0.0000   0.0000   0.0000   0.0000   0.0000   0.0000
     0.0000   0.0000   0.0000   0.0000

          k = 0.0000 0.1925 0.0000 (126305 PWs)   bands (ev):

   -60.2540 -60.2412 -60.2386 -60.2386 -60.2339 -60.2339 -60.2319 -60.2211
   -60.2211 -60.2190 -60.2185 -60.2184 -60.2184 -60.2184 -60.2164 -60.2164
   -34.5429 -34.5429 -34.5403 -34.4863 -34.4863 -34.4838 -34.4838 -34.4715
   -34.4715 -34.4149 -34.3928 -34.3928 -34.3803 -34.3588 -34.3588 -34.3547
   -34.3494 -34.3494 -34.3466 -34.3466 -34.3400 -34.3400 -34.3359 -34.3313
   -34.3313 -34.3215 -34.3142 -34.3142 -34.3138 -34.3138 -34.3100 -34.3088
   -34.3088 -34.3088 -34.3088 -34.3047 -34.3047 -34.2726 -34.2726 -34.2677
   -34.2382 -34.2355 -34.2355 -34.2242 -34.2242 -34.2166 -34.1917 -34.1868
   -13.3895 -12.8265 -12.7008 -12.7007 -12.4684 -12.4684 -12.3627 -12.0969
   -11.8675 -11.8164 -11.8164 -11.7631 -11.7631 -11.7228 -11.7228 -11.6811
   -11.6152 -11.5994 -11.5994 -11.5762 -11.5761 -11.4725 -11.4725 -11.4271
   -11.4271 -11.3926 -11.3761 -11.3761 -11.3578 -11.3578 -11.2993 -11.2993
    -5.0496  -5.0496  -5.0444  -4.9033  -4.4879  -4.4879  -4.4537  -4.4537
    -4.4449  -4.4449  -4.3908  -4.3827  -4.3757  -4.3757  -4.3283  -4.3283
    -4.3235  -4.3235  -4.2296  -4.2296  -4.1066  -4.1066  -4.0548  -3.9754
    -3.9754  -3.3821  -3.3821  -3.3760  -3.2242  -3.2098  -3.2004  -3.2004
    -3.0877  -3.0877  -3.0535  -3.0535  -3.0330  -3.0330  -3.0077  -3.0077
    -2.9884  -2.9884  -2.9756  -2.7325  -2.7325  -2.6182  -2.6182  -2.5736
    -2.5492  -2.5492  -2.5114  -2.5114  -2.4921  -2.4699  -2.4699  -2.4569
    -2.4569  -2.0740  -2.0740  -2.0320  -2.0319  -2.0248  -2.0248  -1.9457
    -1.9195  -1.9195  -1.8303  -1.8303  -1.6290  -1.3731  -1.2999  -1.2731
    -1.2731  -1.1879  -1.1878  -1.1829  -1.1464  -1.1464  -1.0784  -1.0784
    -0.9886  -0.9886  -0.9406  -0.9141  -0.8135  -0.8025  -0.8025  -0.7051
    -0.6765  -0.6765  -0.5229  -0.5229  -0.5158  -0.5110  -0.5110  -0.3739
    -0.2327  -0.1506  -0.1506  -0.0229  -0.0076  -0.0076   0.0462   0.0462
     0.0822   0.0822   0.1306   0.1306   0.1693   0.2853   0.2853   0.6595
     2.6724   2.6724   2.7813   2.7813   2.7929   2.7929   2.8160   2.8160
     2.8306   2.8306   2.8436   2.8515   2.8671   2.8671   2.8822   2.8980
     2.9906   2.9906   3.0593   3.0593   3.1172   3.2459   3.2459   3.3277
     3.3350   3.3477   3.3716   3.3716   3.3722   3.3722   3.4290   3.4290
     3.4357   3.5657   3.5951   3.5951   3.6130   3.6922   3.6922   3.6940
     3.6940   3.7765   3.7885   3.7885   3.8114   3.8114   4.1994   4.3578
     4.3578   4.4723   4.5225   4.5225

     occupation numbers 
     1.0000   1.0000   1.0000   1.0000   1.0000   1.0000   1.0000   1.0000
     1.0000   1.0000   1.0000   1.0000   1.0000   1.0000   1.0000   1.0000
     1.0000   1.0000   1.0000   1.0000   1.0000   1.0000   1.0000   1.0000
     1.0000   1.0000   1.0000   1.0000   1.0000   1.0000   1.0000   1.0000
     1.0000   1.0000   1.0000   1.0000   1.0000   1.0000   1.0000   1.0000
     1.0000   1.0000   1.0000   1.0000   1.0000   1.0000   1.0000   1.0000
     1.0000   1.0000   1.0000   1.0000   1.0000   1.0000   1.0000   1.0000
     1.0000   1.0000   1.0000   1.0000   1.0000   1.0000   1.0000   1.0000
     1.0000   1.0000   1.0000   1.0000   1.0000   1.0000   1.0000   1.0000
     1.0000   1.0000   1.0000   1.0000   1.0000   1.0000   1.0000   1.0000
     1.0000   1.0000   1.0000   1.0000   1.0000   1.0000   1.0000   1.0000
     1.0000   1.0000   1.0000   1.0000   1.0000   1.0000   1.0000   1.0000
     1.0000   1.0000   1.0000   1.0000   1.0000   1.0000   1.0000   1.0000
     1.0000   1.0000   1.0000   1.0000   1.0000   1.0000   1.0000   1.0000
     1.0000   1.0000   1.0000   1.0000   1.0000   1.0000   1.0000   1.0000
     1.0000   1.0000   1.0000   1.0000   1.0000   1.0000   1.0000   1.0000
     1.0000   1.0000   1.0000   1.0000   1.0000   1.0000   1.0000   1.0000
     1.0000   1.0000   1.0000   1.0000   1.0000   1.0000   1.0000   1.0000
     1.0000   1.0000   1.0000   1.0000   1.0000   1.0000   1.0000   1.0000
     1.0000   1.0000   1.0000   1.0000   1.0000   1.0000   1.0000   1.0000
     1.0000   1.0000   1.0000   1.0000   1.0000   1.0000   1.0000   1.0000
     1.0000   1.0000   1.0000   1.0000   1.0000   1.0000   1.0000   1.0000
     1.0000   1.0000   1.0000   1.0000   1.0000   1.0000   1.0000   1.0000
     1.0000   1.0000   1.0000   1.0000   1.0000   1.0000   1.0000   1.0000
     1.0000   1.0000   1.0000   1.0000   1.0000   1.0000   1.0000   1.0000
     1.0000   1.0000   1.0000   1.0000   1.0000   1.0000   1.0000   1.0000
     0.0000   0.0000   0.0000   0.0000   0.0000   0.0000   0.0000   0.0000
     0.0000   0.0000   0.0000   0.0000   0.0000   0.0000   0.0000   0.0000
     0.0000   0.0000   0.0000   0.0000   0.0000   0.0000   0.0000   0.0000
     0.0000   0.0000   0.0000   0.0000   0.0000   0.0000   0.0000   0.0000
     0.0000   0.0000   0.0000   0.0000   0.0000   0.0000   0.0000   0.0000
     0.0000   0.0000   0.0000   0.0000   0.0000   0.0000   0.0000   0.0000
     0.0000   0.0000   0.0000   0.0000

          k = 0.0000 0.2406 0.0000 (126242 PWs)   bands (ev):

   -60.2536 -60.2423 -60.2390 -60.2390 -60.2332 -60.2331 -60.2307 -60.2218
   -60.2218 -60.2194 -60.2185 -60.2184 -60.2184 -60.2184 -60.2160 -60.2160
   -34.5410 -34.5410 -34.5370 -34.4895 -34.4895 -34.4842 -34.4842 -34.4686
   -34.4686 -34.4261 -34.3990 -34.3990 -34.3796 -34.3632 -34.3632 -34.3570
   -34.3502 -34.3502 -34.3420 -34.3420 -34.3385 -34.3385 -34.3336 -34.3280
   -34.3280 -34.3157 -34.3157 -34.3107 -34.3102 -34.3088 -34.3088 -34.3088
   -34.3088 -34.3077 -34.3077 -34.3039 -34.3039 -34.2746 -34.2746 -34.2669
   -34.2408 -34.2384 -34.2384 -34.2240 -34.2240 -34.2139 -34.1952 -34.1876
   -13.3752 -12.8793 -12.7198 -12.7198 -12.4307 -12.4307 -12.3027 -12.0911
   -11.8889 -11.8240 -11.8240 -11.8072 -11.8072 -11.7074 -11.7074 -11.6573
   -11.6377 -11.5985 -11.5985 -11.5771 -11.5771 -11.4471 -11.4470 -11.4461
   -11.4461 -11.4010 -11.3753 -11.3753 -11.3586 -11.3585 -11.2879 -11.2879
    -5.0300  -5.0300  -5.0220  -4.8868  -4.5167  -4.5167  -4.4853  -4.4853
    -4.4528  -4.4528  -4.4274  -4.4142  -4.3573  -4.3573  -4.3336  -4.3336
    -4.3254  -4.3254  -4.2249  -4.2249  -4.1123  -4.1123  -4.0319  -3.9042
    -3.9042  -3.3742  -3.3742  -3.3653  -3.2846  -3.2292  -3.2047  -3.2047
    -3.0924  -3.0924  -3.0707  -3.0707  -3.0669  -3.0669  -3.0405  -3.0405
    -3.0063  -3.0063  -2.9157  -2.6904  -2.6904  -2.6249  -2.6249  -2.5461
    -2.5461  -2.5111  -2.5111  -2.5011  -2.5011  -2.4919  -2.4808  -2.4309
    -2.4309  -2.0894  -2.0893  -2.0764  -2.0645  -1.9925  -1.9925  -1.9308
    -1.8514  -1.8514  -1.8331  -1.8331  -1.5750  -1.4250  -1.3727  -1.3003
    -1.3003  -1.1883  -1.1883  -1.1822  -1.1822  -1.1745  -1.0738  -1.0738
    -0.9995  -0.9995  -0.9373  -0.8884  -0.8503  -0.7672  -0.7671  -0.6680
    -0.6680  -0.6535  -0.5862  -0.5862  -0.4862  -0.4776  -0.4776  -0.3880
    -0.2622  -0.1674  -0.1674  -0.0477  -0.0341  -0.0341   0.0680   0.0681
     0.1007   0.1007   0.1341   0.1341   0.2251   0.3261   0.3261   0.6523
     2.6332   2.6332   2.7575   2.7575   2.7831   2.7831   2.8133   2.8133
     2.8213   2.8213   2.8475   2.8615   2.8702   2.8702   2.8805   2.9042
     3.0043   3.0043   3.0739   3.0739   3.1519   3.2193   3.2193   3.2882
     3.3144   3.3246   3.3246   3.3272   3.3716   3.3716   3.4250   3.4250
     3.4614   3.5252   3.5965   3.5983   3.5983   3.6775   3.6775   3.7555
     3.7555   3.7958   3.7958   3.8392   3.8462   3.8463   4.1449   4.3579
     4.3579   4.4560   4.5279   4.5279

     occupation numbers 
     1.0000   1.0000   1.0000   1.0000   1.0000   1.0000   1.0000   1.0000
     1.0000   1.0000   1.0000   1.0000   1.0000   1.0000   1.0000   1.0000
     1.0000   1.0000   1.0000   1.0000   1.0000   1.0000   1.0000   1.0000
     1.0000   1.0000   1.0000   1.0000   1.0000   1.0000   1.0000   1.0000
     1.0000   1.0000   1.0000   1.0000   1.0000   1.0000   1.0000   1.0000
     1.0000   1.0000   1.0000   1.0000   1.0000   1.0000   1.0000   1.0000
     1.0000   1.0000   1.0000   1.0000   1.0000   1.0000   1.0000   1.0000
     1.0000   1.0000   1.0000   1.0000   1.0000   1.0000   1.0000   1.0000
     1.0000   1.0000   1.0000   1.0000   1.0000   1.0000   1.0000   1.0000
     1.0000   1.0000   1.0000   1.0000   1.0000   1.0000   1.0000   1.0000
     1.0000   1.0000   1.0000   1.0000   1.0000   1.0000   1.0000   1.0000
     1.0000   1.0000   1.0000   1.0000   1.0000   1.0000   1.0000   1.0000
     1.0000   1.0000   1.0000   1.0000   1.0000   1.0000   1.0000   1.0000
     1.0000   1.0000   1.0000   1.0000   1.0000   1.0000   1.0000   1.0000
     1.0000   1.0000   1.0000   1.0000   1.0000   1.0000   1.0000   1.0000
     1.0000   1.0000   1.0000   1.0000   1.0000   1.0000   1.0000   1.0000
     1.0000   1.0000   1.0000   1.0000   1.0000   1.0000   1.0000   1.0000
     1.0000   1.0000   1.0000   1.0000   1.0000   1.0000   1.0000   1.0000
     1.0000   1.0000   1.0000   1.0000   1.0000   1.0000   1.0000   1.0000
     1.0000   1.0000   1.0000   1.0000   1.0000   1.0000   1.0000   1.0000
     1.0000   1.0000   1.0000   1.0000   1.0000   1.0000   1.0000   1.0000
     1.0000   1.0000   1.0000   1.0000   1.0000   1.0000   1.0000   1.0000
     1.0000   1.0000   1.0000   1.0000   1.0000   1.0000   1.0000   1.0000
     1.0000   1.0000   1.0000   1.0000   1.0000   1.0000   1.0000   1.0000
     1.0000   1.0000   1.0000   1.0000   1.0000   1.0000   1.0000   1.0000
     1.0000   1.0000   1.0000   1.0000   1.0000   1.0000   1.0000   1.0000
     0.0000   0.0000   0.0000   0.0000   0.0000   0.0000   0.0000   0.0000
     0.0000   0.0000   0.0000   0.0000   0.0000   0.0000   0.0000   0.0000
     0.0000   0.0000   0.0000   0.0000   0.0000   0.0000   0.0000   0.0000
     0.0000   0.0000   0.0000   0.0000   0.0000   0.0000   0.0000   0.0000
     0.0000   0.0000   0.0000   0.0000   0.0000   0.0000   0.0000   0.0000
     0.0000   0.0000   0.0000   0.0000   0.0000   0.0000   0.0000   0.0000
     0.0000   0.0000   0.0000   0.0000

          k = 0.0000 0.2887 0.0000 (126306 PWs)   bands (ev):

   -60.2532 -60.2434 -60.2393 -60.2393 -60.2324 -60.2324 -60.2296 -60.2226
   -60.2226 -60.2198 -60.2185 -60.2184 -60.2184 -60.2184 -60.2157 -60.2156
   -34.5388 -34.5388 -34.5329 -34.4931 -34.4931 -34.4844 -34.4844 -34.4653
   -34.4653 -34.4371 -34.4052 -34.4052 -34.3788 -34.3672 -34.3672 -34.3592
   -34.3509 -34.3509 -34.3378 -34.3378 -34.3369 -34.3369 -34.3313 -34.3242
   -34.3242 -34.3172 -34.3172 -34.3116 -34.3088 -34.3088 -34.3088 -34.3088
   -34.3032 -34.3032 -34.3016 -34.3016 -34.2990 -34.2769 -34.2769 -34.2659
   -34.2434 -34.2416 -34.2416 -34.2240 -34.2240 -34.2114 -34.1995 -34.1886
   -13.3578 -12.9303 -12.7364 -12.7364 -12.3913 -12.3913 -12.2430 -12.0840
   -11.9096 -11.8521 -11.8521 -11.8306 -11.8306 -11.6914 -11.6914 -11.6648
   -11.6337 -11.5973 -11.5973 -11.5783 -11.5783 -11.4655 -11.4655 -11.4246
   -11.4246 -11.4111 -11.3744 -11.3744 -11.3595 -11.3595 -11.2778 -11.2778
    -5.0064  -5.0064  -4.9952  -4.8669  -4.5501  -4.5501  -4.5207  -4.5207
    -4.4689  -4.4498  -4.4498  -4.4495  -4.3403  -4.3402  -4.3384  -4.3384
    -4.3273  -4.3273  -4.2193  -4.2193  -4.1190  -4.1190  -4.0041  -3.8320
    -3.8320  -3.3645  -3.3645  -3.3575  -3.3530  -3.2323  -3.2059  -3.2059
    -3.1320  -3.1320  -3.1008  -3.1008  -3.0774  -3.0774  -3.0547  -3.0547
    -3.0260  -3.0259  -2.8519  -2.6489  -2.6489  -2.6269  -2.6269  -2.5426
    -2.5426  -2.5237  -2.5236  -2.5110  -2.5110  -2.4670  -2.4100  -2.4056
    -2.4056  -2.1567  -2.1567  -2.1190  -2.1034  -1.9126  -1.9023  -1.9023
    -1.8780  -1.8780  -1.7472  -1.7472  -1.5208  -1.4755  -1.4478  -1.3253
    -1.3253  -1.2275  -1.2275  -1.1752  -1.1751  -1.1642  -1.0776  -1.0776
    -1.0122  -1.0122  -0.9651  -0.8857  -0.8374  -0.7350  -0.7350  -0.6697
    -0.6697  -0.6577  -0.6577  -0.6049  -0.4604  -0.4324  -0.4324  -0.4052
    -0.2843  -0.1798  -0.1798  -0.0762  -0.0583  -0.0582   0.0876   0.0876
     0.1168   0.1168   0.1379   0.1380   0.2788   0.3652   0.3652   0.6430
     2.5948   2.5948   2.7336   2.7336   2.7740   2.7740   2.7897   2.7897
     2.8274   2.8274   2.8431   2.8655   2.8729   2.8729   2.8854   2.9287
     3.0202   3.0202   3.0864   3.0864   3.1876   3.1997   3.1997   3.2544
     3.2787   3.2787   3.2906   3.3045   3.3714   3.3714   3.4203   3.4203
     3.4786   3.4921   3.5767   3.5989   3.5989   3.6632   3.6632   3.8019
     3.8019   3.8126   3.8126   3.8879   3.8879   3.9013   4.0895   4.3603
     4.3604   4.4358   4.5257   4.5257

     occupation numbers 
     1.0000   1.0000   1.0000   1.0000   1.0000   1.0000   1.0000   1.0000
     1.0000   1.0000   1.0000   1.0000   1.0000   1.0000   1.0000   1.0000
     1.0000   1.0000   1.0000   1.0000   1.0000   1.0000   1.0000   1.0000
     1.0000   1.0000   1.0000   1.0000   1.0000   1.0000   1.0000   1.0000
     1.0000   1.0000   1.0000   1.0000   1.0000   1.0000   1.0000   1.0000
     1.0000   1.0000   1.0000   1.0000   1.0000   1.0000   1.0000   1.0000
     1.0000   1.0000   1.0000   1.0000   1.0000   1.0000   1.0000   1.0000
     1.0000   1.0000   1.0000   1.0000   1.0000   1.0000   1.0000   1.0000
     1.0000   1.0000   1.0000   1.0000   1.0000   1.0000   1.0000   1.0000
     1.0000   1.0000   1.0000   1.0000   1.0000   1.0000   1.0000   1.0000
     1.0000   1.0000   1.0000   1.0000   1.0000   1.0000   1.0000   1.0000
     1.0000   1.0000   1.0000   1.0000   1.0000   1.0000   1.0000   1.0000
     1.0000   1.0000   1.0000   1.0000   1.0000   1.0000   1.0000   1.0000
     1.0000   1.0000   1.0000   1.0000   1.0000   1.0000   1.0000   1.0000
     1.0000   1.0000   1.0000   1.0000   1.0000   1.0000   1.0000   1.0000
     1.0000   1.0000   1.0000   1.0000   1.0000   1.0000   1.0000   1.0000
     1.0000   1.0000   1.0000   1.0000   1.0000   1.0000   1.0000   1.0000
     1.0000   1.0000   1.0000   1.0000   1.0000   1.0000   1.0000   1.0000
     1.0000   1.0000   1.0000   1.0000   1.0000   1.0000   1.0000   1.0000
     1.0000   1.0000   1.0000   1.0000   1.0000   1.0000   1.0000   1.0000
     1.0000   1.0000   1.0000   1.0000   1.0000   1.0000   1.0000   1.0000
     1.0000   1.0000   1.0000   1.0000   1.0000   1.0000   1.0000   1.0000
     1.0000   1.0000   1.0000   1.0000   1.0000   1.0000   1.0000   1.0000
     1.0000   1.0000   1.0000   1.0000   1.0000   1.0000   1.0000   1.0000
     1.0000   1.0000   1.0000   1.0000   1.0000   1.0000   1.0000   1.0000
     1.0000   1.0000   1.0000   1.0000   1.0000   1.0000   1.0000   1.0000
     0.0000   0.0000   0.0000   0.0000   0.0000   0.0000   0.0000   0.0000
     0.0000   0.0000   0.0000   0.0000   0.0000   0.0000   0.0000   0.0000
     0.0000   0.0000   0.0000   0.0000   0.0000   0.0000   0.0000   0.0000
     0.0000   0.0000   0.0000   0.0000   0.0000   0.0000   0.0000   0.0000
     0.0000   0.0000   0.0000   0.0000   0.0000   0.0000   0.0000   0.0000
     0.0000   0.0000   0.0000   0.0000   0.0000   0.0000   0.0000   0.0000
     0.0000   0.0000   0.0000   0.0000

          k = 0.0000 0.3368 0.0000 (126298 PWs)   bands (ev):

   -60.2527 -60.2445 -60.2396 -60.2396 -60.2316 -60.2316 -60.2285 -60.2234
   -60.2234 -60.2203 -60.2185 -60.2184 -60.2184 -60.2184 -60.2154 -60.2154
   -34.5362 -34.5361 -34.5282 -34.4971 -34.4971 -34.4845 -34.4845 -34.4617
   -34.4617 -34.4477 -34.4112 -34.4112 -34.3778 -34.3708 -34.3707 -34.3614
   -34.3515 -34.3515 -34.3354 -34.3354 -34.3340 -34.3340 -34.3292 -34.3202
   -34.3201 -34.3188 -34.3188 -34.3126 -34.3088 -34.3088 -34.3088 -34.3088
   -34.3026 -34.3026 -34.2956 -34.2956 -34.2881 -34.2797 -34.2797 -34.2648
   -34.2459 -34.2452 -34.2452 -34.2241 -34.2241 -34.2089 -34.2045 -34.1897
   -13.3373 -12.9793 -12.7505 -12.7505 -12.3506 -12.3506 -12.1840 -12.0756
   -11.9296 -11.8979 -11.8979 -11.8362 -11.8362 -11.6963 -11.6747 -11.6747
   -11.6105 -11.5960 -11.5960 -11.5797 -11.5796 -11.4851 -11.4851 -11.4229
   -11.4054 -11.4054 -11.3734 -11.3734 -11.3605 -11.3605 -11.2692 -11.2692
    -4.9790  -4.9790  -4.9641  -4.8437  -4.5872  -4.5872  -4.5510  -4.5510
    -4.5141  -4.4874  -4.4449  -4.4449  -4.3481  -4.3481  -4.3291  -4.3291
    -4.3197  -4.3197  -4.2128  -4.2128  -4.1265  -4.1265  -3.9716  -3.7596
    -3.7596  -3.4285  -3.3531  -3.3531  -3.3394  -3.2350  -3.2037  -3.2037
    -3.1731  -3.1731  -3.1337  -3.1337  -3.1154  -3.1154  -3.0467  -3.0467
    -3.0402  -3.0401  -2.7852  -2.6237  -2.6237  -2.6086  -2.6086  -2.5394
    -2.5394  -2.5387  -2.5387  -2.5113  -2.5113  -2.4507  -2.3819  -2.3819
    -2.3282  -2.2246  -2.2246  -2.1598  -2.1482  -1.9079  -1.9079  -1.8912
    -1.8056  -1.8056  -1.6627  -1.6627  -1.5245  -1.5245  -1.4666  -1.3475
    -1.3475  -1.2632  -1.2632  -1.1667  -1.1667  -1.1520  -1.0907  -1.0907
    -1.0263  -1.0262  -0.9970  -0.9195  -0.7881  -0.7600  -0.7600  -0.7066
    -0.7066  -0.6471  -0.6471  -0.5603  -0.4391  -0.4255  -0.3896  -0.3896
    -0.2987  -0.1874  -0.1874  -0.1073  -0.0802  -0.0802   0.1047   0.1047
     0.1301   0.1301   0.1420   0.1420   0.3298   0.4014   0.4014   0.6314
     2.5586   2.5586   2.7114   2.7114   2.7629   2.7629   2.7660   2.7660
     2.8341   2.8342   2.8386   2.8530   2.8750   2.8750   2.9152   2.9554
     3.0374   3.0374   3.0967   3.0967   3.1846   3.1846   3.2239   3.2269
     3.2358   3.2358   3.2640   3.2807   3.3718   3.3719   3.4150   3.4150
     3.4269   3.5275   3.5539   3.5981   3.5981   3.6495   3.6495   3.8070
     3.8070   3.8640   3.8640   3.9357   3.9357   3.9621   4.0335   4.3641
     4.3641   4.4116   4.5096   4.5096

     occupation numbers 
     1.0000   1.0000   1.0000   1.0000   1.0000   1.0000   1.0000   1.0000
     1.0000   1.0000   1.0000   1.0000   1.0000   1.0000   1.0000   1.0000
     1.0000   1.0000   1.0000   1.0000   1.0000   1.0000   1.0000   1.0000
     1.0000   1.0000   1.0000   1.0000   1.0000   1.0000   1.0000   1.0000
     1.0000   1.0000   1.0000   1.0000   1.0000   1.0000   1.0000   1.0000
     1.0000   1.0000   1.0000   1.0000   1.0000   1.0000   1.0000   1.0000
     1.0000   1.0000   1.0000   1.0000   1.0000   1.0000   1.0000   1.0000
     1.0000   1.0000   1.0000   1.0000   1.0000   1.0000   1.0000   1.0000
     1.0000   1.0000   1.0000   1.0000   1.0000   1.0000   1.0000   1.0000
     1.0000   1.0000   1.0000   1.0000   1.0000   1.0000   1.0000   1.0000
     1.0000   1.0000   1.0000   1.0000   1.0000   1.0000   1.0000   1.0000
     1.0000   1.0000   1.0000   1.0000   1.0000   1.0000   1.0000   1.0000
     1.0000   1.0000   1.0000   1.0000   1.0000   1.0000   1.0000   1.0000
     1.0000   1.0000   1.0000   1.0000   1.0000   1.0000   1.0000   1.0000
     1.0000   1.0000   1.0000   1.0000   1.0000   1.0000   1.0000   1.0000
     1.0000   1.0000   1.0000   1.0000   1.0000   1.0000   1.0000   1.0000
     1.0000   1.0000   1.0000   1.0000   1.0000   1.0000   1.0000   1.0000
     1.0000   1.0000   1.0000   1.0000   1.0000   1.0000   1.0000   1.0000
     1.0000   1.0000   1.0000   1.0000   1.0000   1.0000   1.0000   1.0000
     1.0000   1.0000   1.0000   1.0000   1.0000   1.0000   1.0000   1.0000
     1.0000   1.0000   1.0000   1.0000   1.0000   1.0000   1.0000   1.0000
     1.0000   1.0000   1.0000   1.0000   1.0000   1.0000   1.0000   1.0000
     1.0000   1.0000   1.0000   1.0000   1.0000   1.0000   1.0000   1.0000
     1.0000   1.0000   1.0000   1.0000   1.0000   1.0000   1.0000   1.0000
     1.0000   1.0000   1.0000   1.0000   1.0000   1.0000   1.0000   1.0000
     1.0000   1.0000   1.0000   1.0000   1.0000   1.0000   1.0000   1.0000
     0.0000   0.0000   0.0000   0.0000   0.0000   0.0000   0.0000   0.0000
     0.0000   0.0000   0.0000   0.0000   0.0000   0.0000   0.0000   0.0000
     0.0000   0.0000   0.0000   0.0000   0.0000   0.0000   0.0000   0.0000
     0.0000   0.0000   0.0000   0.0000   0.0000   0.0000   0.0000   0.0000
     0.0000   0.0000   0.0000   0.0000   0.0000   0.0000   0.0000   0.0000
     0.0000   0.0000   0.0000   0.0000   0.0000   0.0000   0.0000   0.0000
     0.0000   0.0000   0.0000   0.0000

          k = 0.0000 0.3849 0.0000 (126328 PWs)   bands (ev):

   -60.2522 -60.2456 -60.2398 -60.2398 -60.2308 -60.2308 -60.2275 -60.2242
   -60.2242 -60.2209 -60.2185 -60.2184 -60.2184 -60.2184 -60.2151 -60.2151
   -34.5332 -34.5332 -34.5228 -34.5013 -34.5013 -34.4845 -34.4845 -34.4580
   -34.4578 -34.4578 -34.4172 -34.4172 -34.3767 -34.3737 -34.3737 -34.3635
   -34.3519 -34.3519 -34.3337 -34.3337 -34.3309 -34.3309 -34.3271 -34.3204
   -34.3204 -34.3159 -34.3158 -34.3137 -34.3088 -34.3088 -34.3088 -34.3088
   -34.3021 -34.3021 -34.2896 -34.2896 -34.2828 -34.2828 -34.2776 -34.2635
   -34.2490 -34.2490 -34.2483 -34.2242 -34.2242 -34.2102 -34.2064 -34.1910
   -13.3139 -13.0263 -12.7622 -12.7622 -12.3085 -12.3085 -12.1258 -12.0660
   -11.9487 -11.9441 -11.9441 -11.8408 -11.8408 -11.7318 -11.6574 -11.6574
   -11.5946 -11.5946 -11.5877 -11.5811 -11.5811 -11.5048 -11.5048 -11.4362
   -11.3895 -11.3895 -11.3722 -11.3722 -11.3617 -11.3617 -11.2620 -11.2620
    -4.9481  -4.9481  -4.9291  -4.8174  -4.6271  -4.6271  -4.5760  -4.5760
    -4.5619  -4.5269  -4.4382  -4.4382  -4.3571  -4.3571  -4.3307  -4.3307
    -4.3021  -4.3021  -4.2055  -4.2055  -4.1347  -4.1347  -3.9345  -3.6878
    -3.6878  -3.4972  -3.3398  -3.3398  -3.3249  -3.2384  -3.2163  -3.2163
    -3.1984  -3.1984  -3.1648  -3.1648  -3.1514  -3.1514  -3.0680  -3.0680
    -3.0276  -3.0276  -2.7166  -2.6147  -2.6147  -2.5709  -2.5709  -2.5501
    -2.5501  -2.5347  -2.5347  -2.5120  -2.5120  -2.4320  -2.3606  -2.3606
    -2.2911  -2.2911  -2.2464  -2.1986  -2.1983  -1.9387  -1.9387  -1.8668
    -1.7040  -1.7040  -1.6024  -1.5807  -1.5807  -1.5718  -1.4128  -1.3664
    -1.3664  -1.2944  -1.2944  -1.1568  -1.1568  -1.1379  -1.1133  -1.1133
    -1.0414  -1.0413  -1.0328  -0.9517  -0.8558  -0.8558  -0.7405  -0.6820
    -0.6820  -0.6376  -0.6376  -0.5206  -0.4490  -0.4231  -0.3515  -0.3515
    -0.3052  -0.1903  -0.1903  -0.1398  -0.1002  -0.1002   0.1190   0.1190
     0.1404   0.1404   0.1461   0.1461   0.3774   0.4333   0.4333   0.6172
     2.5262   2.5262   2.6923   2.6923   2.7360   2.7360   2.7593   2.7593
     2.8342   2.8412   2.8412   2.8429   2.8760   2.8761   2.9508   2.9839
     3.0550   3.0550   3.1049   3.1049   3.1720   3.1720   3.1979   3.1979
     3.2060   3.2353   3.2571   3.2605   3.3718   3.3730   3.3730   3.4094
     3.4094   3.5284   3.5670   3.5969   3.5969   3.6369   3.6369   3.8111
     3.8111   3.9083   3.9083   3.9773   3.9890   3.9890   4.0211   4.3683
     4.3683   4.3834   4.4762   4.4762

     occupation numbers 
     1.0000   1.0000   1.0000   1.0000   1.0000   1.0000   1.0000   1.0000
     1.0000   1.0000   1.0000   1.0000   1.0000   1.0000   1.0000   1.0000
     1.0000   1.0000   1.0000   1.0000   1.0000   1.0000   1.0000   1.0000
     1.0000   1.0000   1.0000   1.0000   1.0000   1.0000   1.0000   1.0000
     1.0000   1.0000   1.0000   1.0000   1.0000   1.0000   1.0000   1.0000
     1.0000   1.0000   1.0000   1.0000   1.0000   1.0000   1.0000   1.0000
     1.0000   1.0000   1.0000   1.0000   1.0000   1.0000   1.0000   1.0000
     1.0000   1.0000   1.0000   1.0000   1.0000   1.0000   1.0000   1.0000
     1.0000   1.0000   1.0000   1.0000   1.0000   1.0000   1.0000   1.0000
     1.0000   1.0000   1.0000   1.0000   1.0000   1.0000   1.0000   1.0000
     1.0000   1.0000   1.0000   1.0000   1.0000   1.0000   1.0000   1.0000
     1.0000   1.0000   1.0000   1.0000   1.0000   1.0000   1.0000   1.0000
     1.0000   1.0000   1.0000   1.0000   1.0000   1.0000   1.0000   1.0000
     1.0000   1.0000   1.0000   1.0000   1.0000   1.0000   1.0000   1.0000
     1.0000   1.0000   1.0000   1.0000   1.0000   1.0000   1.0000   1.0000
     1.0000   1.0000   1.0000   1.0000   1.0000   1.0000   1.0000   1.0000
     1.0000   1.0000   1.0000   1.0000   1.0000   1.0000   1.0000   1.0000
     1.0000   1.0000   1.0000   1.0000   1.0000   1.0000   1.0000   1.0000
     1.0000   1.0000   1.0000   1.0000   1.0000   1.0000   1.0000   1.0000
     1.0000   1.0000   1.0000   1.0000   1.0000   1.0000   1.0000   1.0000
     1.0000   1.0000   1.0000   1.0000   1.0000   1.0000   1.0000   1.0000
     1.0000   1.0000   1.0000   1.0000   1.0000   1.0000   1.0000   1.0000
     1.0000   1.0000   1.0000   1.0000   1.0000   1.0000   1.0000   1.0000
     1.0000   1.0000   1.0000   1.0000   1.0000   1.0000   1.0000   1.0000
     1.0000   1.0000   1.0000   1.0000   1.0000   1.0000   1.0000   1.0000
     1.0000   1.0000   1.0000   1.0000   1.0000   1.0000   1.0000   1.0000
     0.0000   0.0000   0.0000   0.0000   0.0000   0.0000   0.0000   0.0000
     0.0000   0.0000   0.0000   0.0000   0.0000   0.0000   0.0000   0.0000
     0.0000   0.0000   0.0000   0.0000   0.0000   0.0000   0.0000   0.0000
     0.0000   0.0000   0.0000   0.0000   0.0000   0.0000   0.0000   0.0000
     0.0000   0.0000   0.0000   0.0000   0.0000   0.0000   0.0000   0.0000
     0.0000   0.0000   0.0000   0.0000   0.0000   0.0000   0.0000   0.0000
     0.0000   0.0000   0.0000   0.0000

          k = 0.0000 0.4330 0.0000 (126320 PWs)   bands (ev):

   -60.2515 -60.2466 -60.2400 -60.2400 -60.2300 -60.2300 -60.2265 -60.2250
   -60.2250 -60.2215 -60.2185 -60.2184 -60.2184 -60.2184 -60.2149 -60.2149
   -34.5299 -34.5299 -34.5167 -34.5056 -34.5056 -34.4845 -34.4845 -34.4678
   -34.4536 -34.4536 -34.4230 -34.4230 -34.3761 -34.3761 -34.3755 -34.3655
   -34.3523 -34.3523 -34.3321 -34.3321 -34.3284 -34.3284 -34.3250 -34.3220
   -34.3220 -34.3149 -34.3114 -34.3114 -34.3088 -34.3088 -34.3088 -34.3088
   -34.3018 -34.3018 -34.2862 -34.2862 -34.2838 -34.2838 -34.2674 -34.2621
   -34.2532 -34.2532 -34.2506 -34.2244 -34.2244 -34.2166 -34.2041 -34.1925
   -13.2874 -13.0711 -12.7712 -12.7712 -12.2652 -12.2652 -12.0689 -12.0552
   -11.9907 -11.9907 -11.9670 -11.8444 -11.8444 -11.7711 -11.6395 -11.6395
   -11.5930 -11.5930 -11.5827 -11.5827 -11.5655 -11.5246 -11.5246 -11.4511
   -11.3770 -11.3770 -11.3710 -11.3710 -11.3629 -11.3629 -11.2564 -11.2563
    -4.9140  -4.9140  -4.8906  -4.7881  -4.6689  -4.6689  -4.6110  -4.5956
    -4.5956  -4.5671  -4.4300  -4.4300  -4.3670  -4.3670  -4.3321  -4.3321
    -4.2869  -4.2868  -4.1976  -4.1976  -4.1434  -4.1434  -3.8929  -3.6173
    -3.6173  -3.5633  -3.3248  -3.3248  -3.3102  -3.2623  -3.2623  -3.2432
    -3.1940  -3.1939  -3.1899  -3.1899  -3.1826  -3.1826  -3.0893  -3.0893
    -3.0174  -3.0174  -2.6470  -2.5993  -2.5993  -2.5571  -2.5571  -2.5373
    -2.5373  -2.5307  -2.5307  -2.5131  -2.5131  -2.4108  -2.3543  -2.3543
    -2.3427  -2.3427  -2.2533  -2.2354  -2.1648  -1.9677  -1.9677  -1.8393
    -1.6812  -1.6171  -1.5989  -1.5989  -1.5020  -1.5019  -1.3816  -1.3816
    -1.3597  -1.3201  -1.3201  -1.1455  -1.1455  -1.1455  -1.1455  -1.1217
    -1.0721  -1.0571  -1.0571  -0.9820  -0.9561  -0.9561  -0.6950  -0.6617
    -0.6617  -0.6301  -0.6301  -0.4862  -0.4755  -0.4127  -0.3197  -0.3197
    -0.3040  -0.1887  -0.1887  -0.1725  -0.1185  -0.1185   0.1303   0.1303
     0.1479   0.1479   0.1498   0.1498   0.4213   0.4599   0.4599   0.6001
     2.4991   2.4991   2.6775   2.6775   2.7115   2.7115   2.7539   2.7539
     2.8305   2.8353   2.8483   2.8483   2.8758   2.8759   2.9918   3.0138
     3.0725   3.0725   3.1112   3.1112   3.1602   3.1602   3.1666   3.1666
     3.1918   3.2050   3.2349   3.2971   3.3144   3.3751   3.3751   3.4035
     3.4035   3.5003   3.5962   3.5962   3.6102   3.6256   3.6256   3.8142
     3.8142   3.9211   3.9442   3.9442   4.0471   4.0471   4.0779   4.3512
     4.3722   4.3722   4.4278   4.4278

     occupation numbers 
     1.0000   1.0000   1.0000   1.0000   1.0000   1.0000   1.0000   1.0000
     1.0000   1.0000   1.0000   1.0000   1.0000   1.0000   1.0000   1.0000
     1.0000   1.0000   1.0000   1.0000   1.0000   1.0000   1.0000   1.0000
     1.0000   1.0000   1.0000   1.0000   1.0000   1.0000   1.0000   1.0000
     1.0000   1.0000   1.0000   1.0000   1.0000   1.0000   1.0000   1.0000
     1.0000   1.0000   1.0000   1.0000   1.0000   1.0000   1.0000   1.0000
     1.0000   1.0000   1.0000   1.0000   1.0000   1.0000   1.0000   1.0000
     1.0000   1.0000   1.0000   1.0000   1.0000   1.0000   1.0000   1.0000
     1.0000   1.0000   1.0000   1.0000   1.0000   1.0000   1.0000   1.0000
     1.0000   1.0000   1.0000   1.0000   1.0000   1.0000   1.0000   1.0000
     1.0000   1.0000   1.0000   1.0000   1.0000   1.0000   1.0000   1.0000
     1.0000   1.0000   1.0000   1.0000   1.0000   1.0000   1.0000   1.0000
     1.0000   1.0000   1.0000   1.0000   1.0000   1.0000   1.0000   1.0000
     1.0000   1.0000   1.0000   1.0000   1.0000   1.0000   1.0000   1.0000
     1.0000   1.0000   1.0000   1.0000   1.0000   1.0000   1.0000   1.0000
     1.0000   1.0000   1.0000   1.0000   1.0000   1.0000   1.0000   1.0000
     1.0000   1.0000   1.0000   1.0000   1.0000   1.0000   1.0000   1.0000
     1.0000   1.0000   1.0000   1.0000   1.0000   1.0000   1.0000   1.0000
     1.0000   1.0000   1.0000   1.0000   1.0000   1.0000   1.0000   1.0000
     1.0000   1.0000   1.0000   1.0000   1.0000   1.0000   1.0000   1.0000
     1.0000   1.0000   1.0000   1.0000   1.0000   1.0000   1.0000   1.0000
     1.0000   1.0000   1.0000   1.0000   1.0000   1.0000   1.0000   1.0000
     1.0000   1.0000   1.0000   1.0000   1.0000   1.0000   1.0000   1.0000
     1.0000   1.0000   1.0000   1.0000   1.0000   1.0000   1.0000   1.0000
     1.0000   1.0000   1.0000   1.0000   1.0000   1.0000   1.0000   1.0000
     1.0000   1.0000   1.0000   1.0000   1.0000   1.0000   1.0000   1.0000
     0.0000   0.0000   0.0000   0.0000   0.0000   0.0000   0.0000   0.0000
     0.0000   0.0000   0.0000   0.0000   0.0000   0.0000   0.0000   0.0000
     0.0000   0.0000   0.0000   0.0000   0.0000   0.0000   0.0000   0.0000
     0.0000   0.0000   0.0000   0.0000   0.0000   0.0000   0.0000   0.0000
     0.0000   0.0000   0.0000   0.0000   0.0000   0.0000   0.0000   0.0000
     0.0000   0.0000   0.0000   0.0000   0.0000   0.0000   0.0000   0.0000
     0.0000   0.0000   0.0000   0.0000

          k = 0.0000 0.4811 0.0000 (126334 PWs)   bands (ev):

   -60.2509 -60.2475 -60.2402 -60.2402 -60.2292 -60.2292 -60.2258 -60.2258
   -60.2255 -60.2222 -60.2185 -60.2184 -60.2184 -60.2184 -60.2148 -60.2148
   -34.5263 -34.5263 -34.5099 -34.5099 -34.5099 -34.4844 -34.4844 -34.4773
   -34.4492 -34.4492 -34.4287 -34.4287 -34.3778 -34.3778 -34.3741 -34.3674
   -34.3526 -34.3526 -34.3304 -34.3304 -34.3265 -34.3265 -34.3237 -34.3237
   -34.3231 -34.3163 -34.3088 -34.3088 -34.3088 -34.3088 -34.3069 -34.3069
   -34.3015 -34.3015 -34.2899 -34.2899 -34.2782 -34.2782 -34.2605 -34.2577
   -34.2577 -34.2576 -34.2528 -34.2246 -34.2246 -34.2236 -34.2019 -34.1941
   -13.2581 -13.1136 -12.7777 -12.7777 -12.2210 -12.2210 -12.0433 -12.0373
   -12.0373 -12.0136 -11.9843 -11.8470 -11.8470 -11.8139 -11.6212 -11.6212
   -11.5914 -11.5913 -11.5844 -11.5844 -11.5443 -11.5443 -11.5440 -11.4673
   -11.3697 -11.3697 -11.3680 -11.3680 -11.3642 -11.3642 -11.2523 -11.2523
    -4.8771  -4.8771  -4.8490  -4.7560  -4.7116  -4.7116  -4.6606  -4.6096
    -4.6096  -4.6073  -4.4207  -4.4206  -4.3776  -4.3776  -4.3331  -4.3331
    -4.2749  -4.2749  -4.1892  -4.1892  -4.1525  -4.1525  -3.8472  -3.6267
    -3.5491  -3.5491  -3.3117  -3.3117  -3.3079  -3.3079  -3.2957  -3.2500
    -3.2209  -3.2209  -3.2068  -3.2068  -3.1785  -3.1785  -3.1100  -3.1100
    -3.0099  -3.0099  -2.5773  -2.5769  -2.5769  -2.5614  -2.5614  -2.5268
    -2.5268  -2.5148  -2.5148  -2.5102  -2.5102  -2.4125  -2.4125  -2.3873
    -2.3291  -2.3291  -2.3124  -2.2702  -2.0833  -1.9921  -1.9921  -1.8089
    -1.7606  -1.6603  -1.4916  -1.4916  -1.4273  -1.4273  -1.3927  -1.3926
    -1.3393  -1.3393  -1.3074  -1.1868  -1.1868  -1.1330  -1.1330  -1.1145
    -1.1035  -1.0731  -1.0731  -1.0600  -1.0600  -1.0103  -0.6518  -0.6458
    -0.6458  -0.6254  -0.6254  -0.5050  -0.4577  -0.4086  -0.2959  -0.2959
    -0.2955  -0.2042  -0.1833  -0.1833  -0.1351  -0.1351   0.1384   0.1384
     0.1529   0.1529   0.1530   0.1530   0.4611   0.4798   0.4798   0.5798
     2.4786   2.4786   2.6680   2.6680   2.6911   2.6911   2.7500   2.7500
     2.8275   2.8299   2.8552   2.8552   2.8742   2.8742   3.0377   3.0449
     3.0896   3.0896   3.1155   3.1155   3.1432   3.1432   3.1481   3.1481
     3.1735   3.1843   3.2155   3.2561   3.3335   3.3781   3.3781   3.3976
     3.3976   3.4700   3.5966   3.5966   3.6160   3.6160   3.6567   3.8163
     3.8163   3.8655   3.9707   3.9707   4.1090   4.1090   4.1321   4.3150
     4.3696   4.3696   4.3754   4.3754

     occupation numbers 
     1.0000   1.0000   1.0000   1.0000   1.0000   1.0000   1.0000   1.0000
     1.0000   1.0000   1.0000   1.0000   1.0000   1.0000   1.0000   1.0000
     1.0000   1.0000   1.0000   1.0000   1.0000   1.0000   1.0000   1.0000
     1.0000   1.0000   1.0000   1.0000   1.0000   1.0000   1.0000   1.0000
     1.0000   1.0000   1.0000   1.0000   1.0000   1.0000   1.0000   1.0000
     1.0000   1.0000   1.0000   1.0000   1.0000   1.0000   1.0000   1.0000
     1.0000   1.0000   1.0000   1.0000   1.0000   1.0000   1.0000   1.0000
     1.0000   1.0000   1.0000   1.0000   1.0000   1.0000   1.0000   1.0000
     1.0000   1.0000   1.0000   1.0000   1.0000   1.0000   1.0000   1.0000
     1.0000   1.0000   1.0000   1.0000   1.0000   1.0000   1.0000   1.0000
     1.0000   1.0000   1.0000   1.0000   1.0000   1.0000   1.0000   1.0000
     1.0000   1.0000   1.0000   1.0000   1.0000   1.0000   1.0000   1.0000
     1.0000   1.0000   1.0000   1.0000   1.0000   1.0000   1.0000   1.0000
     1.0000   1.0000   1.0000   1.0000   1.0000   1.0000   1.0000   1.0000
     1.0000   1.0000   1.0000   1.0000   1.0000   1.0000   1.0000   1.0000
     1.0000   1.0000   1.0000   1.0000   1.0000   1.0000   1.0000   1.0000
     1.0000   1.0000   1.0000   1.0000   1.0000   1.0000   1.0000   1.0000
     1.0000   1.0000   1.0000   1.0000   1.0000   1.0000   1.0000   1.0000
     1.0000   1.0000   1.0000   1.0000   1.0000   1.0000   1.0000   1.0000
     1.0000   1.0000   1.0000   1.0000   1.0000   1.0000   1.0000   1.0000
     1.0000   1.0000   1.0000   1.0000   1.0000   1.0000   1.0000   1.0000
     1.0000   1.0000   1.0000   1.0000   1.0000   1.0000   1.0000   1.0000
     1.0000   1.0000   1.0000   1.0000   1.0000   1.0000   1.0000   1.0000
     1.0000   1.0000   1.0000   1.0000   1.0000   1.0000   1.0000   1.0000
     1.0000   1.0000   1.0000   1.0000   1.0000   1.0000   1.0000   1.0000
     1.0000   1.0000   1.0000   1.0000   1.0000   1.0000   1.0000   1.0000
     0.0000   0.0000   0.0000   0.0000   0.0000   0.0000   0.0000   0.0000
     0.0000   0.0000   0.0000   0.0000   0.0000   0.0000   0.0000   0.0000
     0.0000   0.0000   0.0000   0.0000   0.0000   0.0000   0.0000   0.0000
     0.0000   0.0000   0.0000   0.0000   0.0000   0.0000   0.0000   0.0000
     0.0000   0.0000   0.0000   0.0000   0.0000   0.0000   0.0000   0.0000
     0.0000   0.0000   0.0000   0.0000   0.0000   0.0000   0.0000   0.0000
     0.0000   0.0000   0.0000   0.0000

          k = 0.0000 0.5292 0.0000 (126306 PWs)   bands (ev):

   -60.2501 -60.2484 -60.2403 -60.2402 -60.2283 -60.2283 -60.2267 -60.2267
   -60.2246 -60.2229 -60.2185 -60.2184 -60.2184 -60.2184 -60.2147 -60.2147
   -34.5225 -34.5225 -34.5142 -34.5142 -34.5026 -34.4863 -34.4844 -34.4844
   -34.4444 -34.4444 -34.4341 -34.4341 -34.3789 -34.3789 -34.3726 -34.3692
   -34.3528 -34.3528 -34.3288 -34.3288 -34.3254 -34.3254 -34.3254 -34.3254
   -34.3212 -34.3179 -34.3088 -34.3088 -34.3088 -34.3088 -34.3025 -34.3025
   -34.3013 -34.3013 -34.2939 -34.2939 -34.2727 -34.2727 -34.2625 -34.2625
   -34.2588 -34.2549 -34.2483 -34.2313 -34.2247 -34.2247 -34.1997 -34.1958
   -13.2260 -13.1536 -12.7816 -12.7816 -12.1759 -12.1759 -12.0839 -12.0839
   -12.0301 -12.0006 -11.9601 -11.8599 -11.8486 -11.8486 -11.6024 -11.6024
   -11.5896 -11.5896 -11.5861 -11.5861 -11.5639 -11.5639 -11.5233 -11.4849
   -11.3683 -11.3683 -11.3656 -11.3656 -11.3626 -11.3626 -11.2498 -11.2498
    -4.8379  -4.8379  -4.8046  -4.7545  -4.7545  -4.7216  -4.7098  -4.6468
    -4.6181  -4.6181  -4.4104  -4.4104  -4.3886  -4.3886  -4.3337  -4.3337
    -4.2673  -4.2673  -4.1803  -4.1803  -4.1618  -4.1618  -3.7975  -3.6870
    -3.4839  -3.4839  -3.3650  -3.3650  -3.2892  -3.2892  -3.2820  -3.2588
    -3.2457  -3.2457  -3.2221  -3.2221  -3.1644  -3.1644  -3.1298  -3.1298
    -3.0053  -3.0053  -2.5638  -2.5638  -2.5471  -2.5471  -2.5231  -2.5231
    -2.5171  -2.5171  -2.5082  -2.4923  -2.4923  -2.4646  -2.4646  -2.3751
    -2.3614  -2.3206  -2.3206  -2.3028  -2.0085  -2.0085  -2.0021  -1.8407
    -1.7757  -1.7013  -1.3994  -1.3994  -1.3831  -1.3831  -1.3576  -1.3576
    -1.3512  -1.3512  -1.2565  -1.2365  -1.2365  -1.1663  -1.1663  -1.1597
    -1.1192  -1.1192  -1.0890  -1.0890  -1.0833  -1.0367  -0.6342  -0.6342
    -0.6243  -0.6243  -0.6111  -0.5375  -0.4355  -0.4109  -0.2811  -0.2811
    -0.2803  -0.2336  -0.1746  -0.1746  -0.1501  -0.1501   0.1434   0.1434
     0.1552   0.1552   0.1555   0.1555   0.4922   0.4922   0.4968   0.5560
     2.4659   2.4659   2.6643   2.6643   2.6760   2.6760   2.7477   2.7477
     2.8257   2.8266   2.8615   2.8615   2.8712   2.8712   3.0767   3.0880
     3.1059   3.1059   3.1181   3.1181   3.1287   3.1287   3.1352   3.1352
     3.1414   3.1835   3.1982   3.1998   3.3693   3.3820   3.3820   3.3919
     3.3919   3.4379   3.5986   3.5986   3.6082   3.6082   3.7060   3.8108
     3.8176   3.8176   3.9869   3.9869   4.1737   4.1737   4.1831   4.2748
     4.3059   4.3059   4.3775   4.3775

     occupation numbers 
     1.0000   1.0000   1.0000   1.0000   1.0000   1.0000   1.0000   1.0000
     1.0000   1.0000   1.0000   1.0000   1.0000   1.0000   1.0000   1.0000
     1.0000   1.0000   1.0000   1.0000   1.0000   1.0000   1.0000   1.0000
     1.0000   1.0000   1.0000   1.0000   1.0000   1.0000   1.0000   1.0000
     1.0000   1.0000   1.0000   1.0000   1.0000   1.0000   1.0000   1.0000
     1.0000   1.0000   1.0000   1.0000   1.0000   1.0000   1.0000   1.0000
     1.0000   1.0000   1.0000   1.0000   1.0000   1.0000   1.0000   1.0000
     1.0000   1.0000   1.0000   1.0000   1.0000   1.0000   1.0000   1.0000
     1.0000   1.0000   1.0000   1.0000   1.0000   1.0000   1.0000   1.0000
     1.0000   1.0000   1.0000   1.0000   1.0000   1.0000   1.0000   1.0000
     1.0000   1.0000   1.0000   1.0000   1.0000   1.0000   1.0000   1.0000
     1.0000   1.0000   1.0000   1.0000   1.0000   1.0000   1.0000   1.0000
     1.0000   1.0000   1.0000   1.0000   1.0000   1.0000   1.0000   1.0000
     1.0000   1.0000   1.0000   1.0000   1.0000   1.0000   1.0000   1.0000
     1.0000   1.0000   1.0000   1.0000   1.0000   1.0000   1.0000   1.0000
     1.0000   1.0000   1.0000   1.0000   1.0000   1.0000   1.0000   1.0000
     1.0000   1.0000   1.0000   1.0000   1.0000   1.0000   1.0000   1.0000
     1.0000   1.0000   1.0000   1.0000   1.0000   1.0000   1.0000   1.0000
     1.0000   1.0000   1.0000   1.0000   1.0000   1.0000   1.0000   1.0000
     1.0000   1.0000   1.0000   1.0000   1.0000   1.0000   1.0000   1.0000
     1.0000   1.0000   1.0000   1.0000   1.0000   1.0000   1.0000   1.0000
     1.0000   1.0000   1.0000   1.0000   1.0000   1.0000   1.0000   1.0000
     1.0000   1.0000   1.0000   1.0000   1.0000   1.0000   1.0000   1.0000
     1.0000   1.0000   1.0000   1.0000   1.0000   1.0000   1.0000   1.0000
     1.0000   1.0000   1.0000   1.0000   1.0000   1.0000   1.0000   1.0000
     1.0000   1.0000   1.0000   1.0000   1.0000   1.0000   1.0000   1.0000
     0.0000   0.0000   0.0000   0.0000   0.0000   0.0000   0.0000   0.0000
     0.0000   0.0000   0.0000   0.0000   0.0000   0.0000   0.0000   0.0000
     0.0000   0.0000   0.0000   0.0000   0.0000   0.0000   0.0000   0.0000
     0.0000   0.0000   0.0000   0.0000   0.0000   0.0000   0.0000   0.0000
     0.0000   0.0000   0.0000   0.0000   0.0000   0.0000   0.0000   0.0000
     0.0000   0.0000   0.0000   0.0000   0.0000   0.0000   0.0000   0.0000
     0.0000   0.0000   0.0000   0.0000

          k = 0.0000-0.5774 0.0000 (126288 PWs)   bands (ev):

   -60.2493 -60.2493 -60.2403 -60.2403 -60.2275 -60.2275 -60.2275 -60.2275
   -60.2238 -60.2237 -60.2185 -60.2184 -60.2184 -60.2184 -60.2147 -60.2147
   -34.5185 -34.5184 -34.5184 -34.5184 -34.4947 -34.4947 -34.4844 -34.4844
   -34.4394 -34.4394 -34.4394 -34.4394 -34.3792 -34.3792 -34.3710 -34.3710
   -34.3528 -34.3528 -34.3271 -34.3271 -34.3271 -34.3271 -34.3250 -34.3250
   -34.3195 -34.3195 -34.3088 -34.3088 -34.3088 -34.3088 -34.3013 -34.3013
   -34.2981 -34.2981 -34.2981 -34.2981 -34.2675 -34.2675 -34.2675 -34.2675
   -34.2569 -34.2569 -34.2396 -34.2395 -34.2248 -34.2248 -34.1977 -34.1977
   -13.1911 -13.1911 -12.7829 -12.7829 -12.1301 -12.1301 -12.1301 -12.1301
   -12.0159 -12.0159 -11.9087 -11.9087 -11.8491 -11.8491 -11.5879 -11.5879
   -11.5879 -11.5879 -11.5833 -11.5833 -11.5833 -11.5833 -11.5036 -11.5035
   -11.3670 -11.3670 -11.3669 -11.3669 -11.3608 -11.3608 -11.2490 -11.2490
    -4.7968  -4.7968  -4.7968  -4.7968  -4.7581  -4.7581  -4.6850  -4.6850
    -4.6209  -4.6209  -4.3996  -4.3996  -4.3996  -4.3996  -4.3339  -4.3339
    -4.2647  -4.2646  -4.1711  -4.1711  -4.1711  -4.1711  -3.7440  -3.7440
    -3.4224  -3.4224  -3.4224  -3.4224  -3.2695  -3.2695  -3.2685  -3.2685
    -3.2685  -3.2684  -3.2273  -3.2273  -3.1480  -3.1480  -3.1480  -3.1480
    -3.0037  -3.0037  -2.5645  -2.5645  -2.5199  -2.5199  -2.5199  -2.5199
    -2.5096  -2.5096  -2.5096  -2.5096  -2.4860  -2.4860  -2.4406  -2.4406
    -2.3333  -2.3332  -2.3177  -2.3177  -2.0144  -2.0144  -1.9212  -1.9212
    -1.7398  -1.7397  -1.4017  -1.4017  -1.3552  -1.3552  -1.2937  -1.2937
    -1.2937  -1.2937  -1.2744  -1.2744  -1.2744  -1.2744  -1.2071  -1.2071
    -1.1045  -1.1045  -1.1045  -1.1045  -1.0610  -1.0610  -0.6272  -0.6271
    -0.6271  -0.6271  -0.5729  -0.5729  -0.4199  -0.4199  -0.2761  -0.2761
    -0.2593  -0.2593  -0.1634  -0.1634  -0.1634  -0.1634   0.1450   0.1450
     0.1561   0.1561   0.1561   0.1562   0.4964   0.4964   0.5284   0.5284
     2.4616   2.4616   2.6670   2.6670   2.6670   2.6670   2.7469   2.7469
     2.8253   2.8253   2.8669   2.8669   2.8669   2.8669   3.1090   3.1090
     3.1189   3.1189   3.1211   3.1211   3.1211   3.1211   3.1238   3.1238
     3.1418   3.1418   3.1888   3.1889   3.3866   3.3867   3.3867   3.3867
     3.4042   3.4042   3.6024   3.6024   3.6024   3.6024   3.7575   3.7575
     3.8180   3.8180   3.9924   3.9924   4.2308   4.2308   4.2399   4.2399
     4.2399   4.2399   4.3782   4.3782

     occupation numbers 
     1.0000   1.0000   1.0000   1.0000   1.0000   1.0000   1.0000   1.0000
     1.0000   1.0000   1.0000   1.0000   1.0000   1.0000   1.0000   1.0000
     1.0000   1.0000   1.0000   1.0000   1.0000   1.0000   1.0000   1.0000
     1.0000   1.0000   1.0000   1.0000   1.0000   1.0000   1.0000   1.0000
     1.0000   1.0000   1.0000   1.0000   1.0000   1.0000   1.0000   1.0000
     1.0000   1.0000   1.0000   1.0000   1.0000   1.0000   1.0000   1.0000
     1.0000   1.0000   1.0000   1.0000   1.0000   1.0000   1.0000   1.0000
     1.0000   1.0000   1.0000   1.0000   1.0000   1.0000   1.0000   1.0000
     1.0000   1.0000   1.0000   1.0000   1.0000   1.0000   1.0000   1.0000
     1.0000   1.0000   1.0000   1.0000   1.0000   1.0000   1.0000   1.0000
     1.0000   1.0000   1.0000   1.0000   1.0000   1.0000   1.0000   1.0000
     1.0000   1.0000   1.0000   1.0000   1.0000   1.0000   1.0000   1.0000
     1.0000   1.0000   1.0000   1.0000   1.0000   1.0000   1.0000   1.0000
     1.0000   1.0000   1.0000   1.0000   1.0000   1.0000   1.0000   1.0000
     1.0000   1.0000   1.0000   1.0000   1.0000   1.0000   1.0000   1.0000
     1.0000   1.0000   1.0000   1.0000   1.0000   1.0000   1.0000   1.0000
     1.0000   1.0000   1.0000   1.0000   1.0000   1.0000   1.0000   1.0000
     1.0000   1.0000   1.0000   1.0000   1.0000   1.0000   1.0000   1.0000
     1.0000   1.0000   1.0000   1.0000   1.0000   1.0000   1.0000   1.0000
     1.0000   1.0000   1.0000   1.0000   1.0000   1.0000   1.0000   1.0000
     1.0000   1.0000   1.0000   1.0000   1.0000   1.0000   1.0000   1.0000
     1.0000   1.0000   1.0000   1.0000   1.0000   1.0000   1.0000   1.0000
     1.0000   1.0000   1.0000   1.0000   1.0000   1.0000   1.0000   1.0000
     1.0000   1.0000   1.0000   1.0000   1.0000   1.0000   1.0000   1.0000
     1.0000   1.0000   1.0000   1.0000   1.0000   1.0000   1.0000   1.0000
     1.0000   1.0000   1.0000   1.0000   1.0000   1.0000   1.0000   1.0000
     0.0000   0.0000   0.0000   0.0000   0.0000   0.0000   0.0000   0.0000
     0.0000   0.0000   0.0000   0.0000   0.0000   0.0000   0.0000   0.0000
     0.0000   0.0000   0.0000   0.0000   0.0000   0.0000   0.0000   0.0000
     0.0000   0.0000   0.0000   0.0000   0.0000   0.0000   0.0000   0.0000
     0.0000   0.0000   0.0000   0.0000   0.0000   0.0000   0.0000   0.0000
     0.0000   0.0000   0.0000   0.0000   0.0000   0.0000   0.0000   0.0000
     0.0000   0.0000   0.0000   0.0000

          k = 0.0417 0.0722 0.0000 (126337 PWs)   bands (ev):

   -60.2545 -60.2383 -60.2383 -60.2365 -60.2365 -60.2348 -60.2347 -60.2197
   -60.2191 -60.2190 -60.2185 -60.2185 -60.2184 -60.2179 -60.2179 -60.2173
   -34.5458 -34.5453 -34.5453 -34.4822 -34.4822 -34.4820 -34.4792 -34.4792
   -34.4760 -34.3861 -34.3861 -34.3813 -34.3687 -34.3687 -34.3508 -34.3508
   -34.3493 -34.3488 -34.3488 -34.3451 -34.3451 -34.3425 -34.3425 -34.3417
   -34.3417 -34.3311 -34.3311 -34.3263 -34.3114 -34.3101 -34.3100 -34.3089
   -34.3089 -34.3087 -34.3077 -34.3077 -34.3066 -34.2701 -34.2691 -34.2691
   -34.2317 -34.2317 -34.2280 -34.2280 -34.2235 -34.2235 -34.1866 -34.1857
   -13.4102 -12.6871 -12.6871 -12.5976 -12.5975 -12.5118 -12.5118 -12.1054
   -11.8111 -11.8111 -11.7750 -11.7750 -11.7406 -11.7406 -11.6792 -11.6387
   -11.6387 -11.5796 -11.5796 -11.5722 -11.5653 -11.5653 -11.5318 -11.3904
   -11.3793 -11.3793 -11.3762 -11.3731 -11.3731 -11.3408 -11.3408 -11.3255
    -5.0787  -5.0777  -5.0777  -4.9273  -4.4488  -4.4488  -4.4450  -4.4293
    -4.4293  -4.4046  -4.3509  -4.3294  -4.3294  -4.3279  -4.3279  -4.3164
    -4.3164  -4.2947  -4.2947  -4.1761  -4.1761  -4.1124  -4.1013  -4.0915
    -4.0915  -3.3940  -3.3927  -3.3927  -3.1935  -3.1935  -3.1568  -3.1568
    -3.1018  -3.1018  -3.0165  -3.0165  -2.9664  -2.9664  -2.9640  -2.9640
    -2.9552  -2.9548  -2.8966  -2.8966  -2.7767  -2.7767  -2.5937  -2.5743
    -2.5743  -2.5322  -2.5322  -2.5132  -2.5098  -2.5098  -2.5084  -2.3913
    -2.2900  -2.2900  -2.1476  -2.1476  -2.1000  -1.9838  -1.9674  -1.9201
    -1.9201  -1.8637  -1.8637  -1.7684  -1.7684  -1.2399  -1.2399  -1.1962
    -1.1952  -1.1951  -1.1616  -1.1616  -1.1524  -1.0769  -1.0769  -1.0571
    -1.0150  -1.0150  -0.9272  -0.9272  -0.8799  -0.8796  -0.8227  -0.7134
    -0.7134  -0.6424  -0.6424  -0.5980  -0.5980  -0.3933  -0.3641  -0.3641
    -0.1310  -0.1310  -0.0564  -0.0564   0.0239   0.0239   0.0264   0.0264
     0.0470   0.0525   0.0882   0.0882   0.1630   0.1631   0.2023   0.6694
     2.7458   2.7806   2.7806   2.8140   2.8140   2.8211   2.8211   2.8269
     2.8269   2.8354   2.8354   2.8367   2.8592   2.8592   2.8624   2.9566
     2.9566   2.9996   2.9996   3.0367   3.0367   3.3257   3.3689   3.3689
     3.3761   3.3772   3.3772   3.3804   3.3975   3.4443   3.4444   3.4980
     3.4980   3.5169   3.5169   3.5652   3.6170   3.6170   3.6281   3.6375
     3.7169   3.7431   3.7431   3.7665   3.7675   3.7675   4.3338   4.3338
     4.4179   4.4179   4.4765   4.4765

     occupation numbers 
     1.0000   1.0000   1.0000   1.0000   1.0000   1.0000   1.0000   1.0000
     1.0000   1.0000   1.0000   1.0000   1.0000   1.0000   1.0000   1.0000
     1.0000   1.0000   1.0000   1.0000   1.0000   1.0000   1.0000   1.0000
     1.0000   1.0000   1.0000   1.0000   1.0000   1.0000   1.0000   1.0000
     1.0000   1.0000   1.0000   1.0000   1.0000   1.0000   1.0000   1.0000
     1.0000   1.0000   1.0000   1.0000   1.0000   1.0000   1.0000   1.0000
     1.0000   1.0000   1.0000   1.0000   1.0000   1.0000   1.0000   1.0000
     1.0000   1.0000   1.0000   1.0000   1.0000   1.0000   1.0000   1.0000
     1.0000   1.0000   1.0000   1.0000   1.0000   1.0000   1.0000   1.0000
     1.0000   1.0000   1.0000   1.0000   1.0000   1.0000   1.0000   1.0000
     1.0000   1.0000   1.0000   1.0000   1.0000   1.0000   1.0000   1.0000
     1.0000   1.0000   1.0000   1.0000   1.0000   1.0000   1.0000   1.0000
     1.0000   1.0000   1.0000   1.0000   1.0000   1.0000   1.0000   1.0000
     1.0000   1.0000   1.0000   1.0000   1.0000   1.0000   1.0000   1.0000
     1.0000   1.0000   1.0000   1.0000   1.0000   1.0000   1.0000   1.0000
     1.0000   1.0000   1.0000   1.0000   1.0000   1.0000   1.0000   1.0000
     1.0000   1.0000   1.0000   1.0000   1.0000   1.0000   1.0000   1.0000
     1.0000   1.0000   1.0000   1.0000   1.0000   1.0000   1.0000   1.0000
     1.0000   1.0000   1.0000   1.0000   1.0000   1.0000   1.0000   1.0000
     1.0000   1.0000   1.0000   1.0000   1.0000   1.0000   1.0000   1.0000
     1.0000   1.0000   1.0000   1.0000   1.0000   1.0000   1.0000   1.0000
     1.0000   1.0000   1.0000   1.0000   1.0000   1.0000   1.0000   1.0000
     1.0000   1.0000   1.0000   1.0000   1.0000   1.0000   1.0000   1.0000
     1.0000   1.0000   1.0000   1.0000   1.0000   1.0000   1.0000   1.0000
     1.0000   1.0000   1.0000   1.0000   1.0000   1.0000   1.0000   1.0000
     1.0000   1.0000   1.0000   1.0000   1.0000   1.0000   1.0000   1.0000
     0.0000   0.0000   0.0000   0.0000   0.0000   0.0000   0.0000   0.0000
     0.0000   0.0000   0.0000   0.0000   0.0000   0.0000   0.0000   0.0000
     0.0000   0.0000   0.0000   0.0000   0.0000   0.0000   0.0000   0.0000
     0.0000   0.0000   0.0000   0.0000   0.0000   0.0000   0.0000   0.0000
     0.0000   0.0000   0.0000   0.0000   0.0000   0.0000   0.0000   0.0000
     0.0000   0.0000   0.0000   0.0000   0.0000   0.0000   0.0000   0.0000
     0.0000   0.0000   0.0000   0.0000

          k = 0.0417 0.1203 0.0000 (126316 PWs)   bands (ev):

   -60.2543 -60.2395 -60.2388 -60.2370 -60.2358 -60.2341 -60.2336 -60.2204
   -60.2197 -60.2190 -60.2187 -60.2185 -60.2184 -60.2179 -60.2173 -60.2168
   -34.5451 -34.5443 -34.5438 -34.4839 -34.4837 -34.4823 -34.4807 -34.4776
   -34.4733 -34.3978 -34.3921 -34.3810 -34.3750 -34.3633 -34.3550 -34.3512
   -34.3499 -34.3474 -34.3461 -34.3453 -34.3438 -34.3407 -34.3404 -34.3393
   -34.3391 -34.3295 -34.3248 -34.3206 -34.3128 -34.3114 -34.3100 -34.3092
   -34.3090 -34.3086 -34.3077 -34.3066 -34.3056 -34.2713 -34.2697 -34.2688
   -34.2344 -34.2335 -34.2302 -34.2274 -34.2225 -34.2207 -34.1882 -34.1860
   -13.4038 -12.7435 -12.7125 -12.6219 -12.5636 -12.4792 -12.4520 -12.1028
   -11.8339 -11.8213 -11.7847 -11.7612 -11.7275 -11.7210 -11.7167 -11.6781
   -11.6380 -11.5899 -11.5825 -11.5702 -11.5652 -11.5320 -11.5006 -11.4085
   -11.3905 -11.3831 -11.3800 -11.3748 -11.3734 -11.3413 -11.3262 -11.3115
    -5.0701  -5.0685  -5.0675  -4.9199  -4.4623  -4.4582  -4.4458  -4.4439
    -4.4200  -4.4017  -4.3848  -4.3477  -4.3475  -4.3444  -4.3356  -4.3328
    -4.3145  -4.3137  -4.2919  -4.1746  -4.1117  -4.1073  -4.0909  -4.0812
    -4.0449  -3.3909  -3.3888  -3.3876  -3.2097  -3.2020  -3.1713  -3.1421
    -3.0947  -3.0816  -3.0564  -3.0552  -2.9914  -2.9853  -2.9845  -2.9758
    -2.9647  -2.9635  -2.9354  -2.8552  -2.7354  -2.6956  -2.6093  -2.5907
    -2.5720  -2.5314  -2.5139  -2.5084  -2.5083  -2.5048  -2.4827  -2.4581
    -2.3371  -2.2417  -2.1047  -2.0584  -2.0249  -1.9987  -1.9681  -1.9614
    -1.9607  -1.9174  -1.8678  -1.7608  -1.7157  -1.2937  -1.2682  -1.2073
    -1.1943  -1.1927  -1.1923  -1.1914  -1.1413  -1.1015  -1.0604  -1.0558
    -1.0231  -1.0193  -0.9334  -0.8906  -0.8868  -0.8367  -0.7768  -0.7523
    -0.7207  -0.6422  -0.6034  -0.5672  -0.5618  -0.4430  -0.3996  -0.3704
    -0.1756  -0.1532  -0.0829  -0.0316   0.0118   0.0203   0.0350   0.0530
     0.0547   0.0685   0.0832   0.0902   0.1645   0.2033   0.2436   0.6664
     2.7084   2.7497   2.7837   2.7999   2.8000   2.8163   2.8251   2.8255
     2.8290   2.8380   2.8386   2.8469   2.8571   2.8603   2.8652   2.9357
     2.9583   2.9978   3.0187   3.0536   3.0676   3.2815   3.3248   3.3589
     3.3659   3.3699   3.3758   3.3781   3.3931   3.4080   3.4094   3.4716
     3.4955   3.5286   3.5619   3.6084   3.6298   3.6318   3.6363   3.6786
     3.6983   3.7337   3.7595   3.7725   3.7819   3.7832   4.2825   4.3190
     4.4108   4.4583   4.4917   4.5015

     occupation numbers 
     1.0000   1.0000   1.0000   1.0000   1.0000   1.0000   1.0000   1.0000
     1.0000   1.0000   1.0000   1.0000   1.0000   1.0000   1.0000   1.0000
     1.0000   1.0000   1.0000   1.0000   1.0000   1.0000   1.0000   1.0000
     1.0000   1.0000   1.0000   1.0000   1.0000   1.0000   1.0000   1.0000
     1.0000   1.0000   1.0000   1.0000   1.0000   1.0000   1.0000   1.0000
     1.0000   1.0000   1.0000   1.0000   1.0000   1.0000   1.0000   1.0000
     1.0000   1.0000   1.0000   1.0000   1.0000   1.0000   1.0000   1.0000
     1.0000   1.0000   1.0000   1.0000   1.0000   1.0000   1.0000   1.0000
     1.0000   1.0000   1.0000   1.0000   1.0000   1.0000   1.0000   1.0000
     1.0000   1.0000   1.0000   1.0000   1.0000   1.0000   1.0000   1.0000
     1.0000   1.0000   1.0000   1.0000   1.0000   1.0000   1.0000   1.0000
     1.0000   1.0000   1.0000   1.0000   1.0000   1.0000   1.0000   1.0000
     1.0000   1.0000   1.0000   1.0000   1.0000   1.0000   1.0000   1.0000
     1.0000   1.0000   1.0000   1.0000   1.0000   1.0000   1.0000   1.0000
     1.0000   1.0000   1.0000   1.0000   1.0000   1.0000   1.0000   1.0000
     1.0000   1.0000   1.0000   1.0000   1.0000   1.0000   1.0000   1.0000
     1.0000   1.0000   1.0000   1.0000   1.0000   1.0000   1.0000   1.0000
     1.0000   1.0000   1.0000   1.0000   1.0000   1.0000   1.0000   1.0000
     1.0000   1.0000   1.0000   1.0000   1.0000   1.0000   1.0000   1.0000
     1.0000   1.0000   1.0000   1.0000   1.0000   1.0000   1.0000   1.0000
     1.0000   1.0000   1.0000   1.0000   1.0000   1.0000   1.0000   1.0000
     1.0000   1.0000   1.0000   1.0000   1.0000   1.0000   1.0000   1.0000
     1.0000   1.0000   1.0000   1.0000   1.0000   1.0000   1.0000   1.0000
     1.0000   1.0000   1.0000   1.0000   1.0000   1.0000   1.0000   1.0000
     1.0000   1.0000   1.0000   1.0000   1.0000   1.0000   1.0000   1.0000
     1.0000   1.0000   1.0000   1.0000   1.0000   1.0000   1.0000   1.0000
     0.0000   0.0000   0.0000   0.0000   0.0000   0.0000   0.0000   0.0000
     0.0000   0.0000   0.0000   0.0000   0.0000   0.0000   0.0000   0.0000
     0.0000   0.0000   0.0000   0.0000   0.0000   0.0000   0.0000   0.0000
     0.0000   0.0000   0.0000   0.0000   0.0000   0.0000   0.0000   0.0000
     0.0000   0.0000   0.0000   0.0000   0.0000   0.0000   0.0000   0.0000
     0.0000   0.0000   0.0000   0.0000   0.0000   0.0000   0.0000   0.0000
     0.0000   0.0000   0.0000   0.0000

          k = 0.0417 0.1684 0.0000 (126320 PWs)   bands (ev):

   -60.2541 -60.2406 -60.2393 -60.2374 -60.2351 -60.2334 -60.2324 -60.2211
   -60.2204 -60.2190 -60.2189 -60.2186 -60.2183 -60.2179 -60.2169 -60.2164
   -34.5440 -34.5429 -34.5416 -34.4862 -34.4850 -34.4830 -34.4824 -34.4756
   -34.4703 -34.4093 -34.3982 -34.3813 -34.3806 -34.3604 -34.3582 -34.3535
   -34.3520 -34.3508 -34.3470 -34.3423 -34.3400 -34.3390 -34.3382 -34.3370
   -34.3274 -34.3273 -34.3185 -34.3148 -34.3142 -34.3127 -34.3100 -34.3097
   -34.3091 -34.3085 -34.3077 -34.3056 -34.3047 -34.2729 -34.2707 -34.2682
   -34.2371 -34.2358 -34.2327 -34.2270 -34.2219 -34.2180 -34.1905 -34.1866
   -13.3943 -12.7986 -12.7356 -12.6440 -12.5276 -12.4449 -12.3919 -12.0989
   -11.8562 -11.8306 -11.7935 -11.7643 -11.7466 -11.7190 -11.7136 -11.6927
   -11.6369 -11.6051 -11.5856 -11.5685 -11.5650 -11.5013 -11.4719 -11.4272
   -11.4084 -11.3888 -11.3805 -11.3737 -11.3732 -11.3421 -11.3127 -11.2986
    -5.0571  -5.0549  -5.0523  -4.9088  -4.4819  -4.4651  -4.4648  -4.4482
    -4.4445  -4.4089  -4.3957  -4.3742  -4.3679  -4.3629  -4.3428  -4.3379
    -4.3138  -4.3117  -4.2877  -4.1724  -4.1146  -4.0916  -4.0657  -4.0449
    -3.9747  -3.3861  -3.3830  -3.3800  -3.2202  -3.2081  -3.1832  -3.1718
    -3.1271  -3.0937  -3.0613  -3.0230  -3.0131  -3.0095  -3.0046  -2.9904
    -2.9833  -2.9762  -2.9740  -2.8132  -2.6937  -2.6216  -2.6142  -2.6037
    -2.5688  -2.5302  -2.5144  -2.5142  -2.5072  -2.4973  -2.4836  -2.4559
    -2.3752  -2.1759  -2.0450  -2.0209  -2.0146  -2.0116  -1.9789  -1.9676
    -1.9507  -1.9464  -1.8816  -1.7644  -1.6623  -1.3469  -1.2961  -1.2719
    -1.2235  -1.1912  -1.1880  -1.1858  -1.1455  -1.1257  -1.1050  -1.0405
    -1.0256  -0.9700  -0.9424  -0.9066  -0.8488  -0.7958  -0.7907  -0.7258
    -0.7212  -0.6367  -0.5593  -0.5301  -0.5277  -0.5063  -0.4526  -0.3798
    -0.2146  -0.1725  -0.1074  -0.0092  -0.0078  -0.0058   0.0236   0.0508
     0.0782   0.0910   0.0931   0.1402   0.1665   0.2442   0.2856   0.6619
     2.6683   2.7153   2.7805   2.7856   2.7884   2.8064   2.8104   2.8292
     2.8321   2.8351   2.8406   2.8541   2.8589   2.8623   2.8684   2.9202
     2.9687   3.0018   3.0366   3.0699   3.1001   3.2463   3.2805   3.3442
     3.3461   3.3547   3.3626   3.3675   3.3739   3.3802   3.4229   3.4271
     3.4917   3.5353   3.5797   3.6186   3.6258   3.6490   3.6791   3.6977
     3.7239   3.7411   3.7776   3.7838   3.7949   3.8065   4.2298   4.3099
     4.4083   4.4806   4.5030   4.5053

     occupation numbers 
     1.0000   1.0000   1.0000   1.0000   1.0000   1.0000   1.0000   1.0000
     1.0000   1.0000   1.0000   1.0000   1.0000   1.0000   1.0000   1.0000
     1.0000   1.0000   1.0000   1.0000   1.0000   1.0000   1.0000   1.0000
     1.0000   1.0000   1.0000   1.0000   1.0000   1.0000   1.0000   1.0000
     1.0000   1.0000   1.0000   1.0000   1.0000   1.0000   1.0000   1.0000
     1.0000   1.0000   1.0000   1.0000   1.0000   1.0000   1.0000   1.0000
     1.0000   1.0000   1.0000   1.0000   1.0000   1.0000   1.0000   1.0000
     1.0000   1.0000   1.0000   1.0000   1.0000   1.0000   1.0000   1.0000
     1.0000   1.0000   1.0000   1.0000   1.0000   1.0000   1.0000   1.0000
     1.0000   1.0000   1.0000   1.0000   1.0000   1.0000   1.0000   1.0000
     1.0000   1.0000   1.0000   1.0000   1.0000   1.0000   1.0000   1.0000
     1.0000   1.0000   1.0000   1.0000   1.0000   1.0000   1.0000   1.0000
     1.0000   1.0000   1.0000   1.0000   1.0000   1.0000   1.0000   1.0000
     1.0000   1.0000   1.0000   1.0000   1.0000   1.0000   1.0000   1.0000
     1.0000   1.0000   1.0000   1.0000   1.0000   1.0000   1.0000   1.0000
     1.0000   1.0000   1.0000   1.0000   1.0000   1.0000   1.0000   1.0000
     1.0000   1.0000   1.0000   1.0000   1.0000   1.0000   1.0000   1.0000
     1.0000   1.0000   1.0000   1.0000   1.0000   1.0000   1.0000   1.0000
     1.0000   1.0000   1.0000   1.0000   1.0000   1.0000   1.0000   1.0000
     1.0000   1.0000   1.0000   1.0000   1.0000   1.0000   1.0000   1.0000
     1.0000   1.0000   1.0000   1.0000   1.0000   1.0000   1.0000   1.0000
     1.0000   1.0000   1.0000   1.0000   1.0000   1.0000   1.0000   1.0000
     1.0000   1.0000   1.0000   1.0000   1.0000   1.0000   1.0000   1.0000
     1.0000   1.0000   1.0000   1.0000   1.0000   1.0000   1.0000   1.0000
     1.0000   1.0000   1.0000   1.0000   1.0000   1.0000   1.0000   1.0000
     1.0000   1.0000   1.0000   1.0000   1.0000   1.0000   1.0000   1.0000
     0.0000   0.0000   0.0000   0.0000   0.0000   0.0000   0.0000   0.0000
     0.0000   0.0000   0.0000   0.0000   0.0000   0.0000   0.0000   0.0000
     0.0000   0.0000   0.0000   0.0000   0.0000   0.0000   0.0000   0.0000
     0.0000   0.0000   0.0000   0.0000   0.0000   0.0000   0.0000   0.0000
     0.0000   0.0000   0.0000   0.0000   0.0000   0.0000   0.0000   0.0000
     0.0000   0.0000   0.0000   0.0000   0.0000   0.0000   0.0000   0.0000
     0.0000   0.0000   0.0000   0.0000

          k = 0.0417 0.2165 0.0000 (126294 PWs)   bands (ev):

   -60.2538 -60.2418 -60.2397 -60.2378 -60.2343 -60.2327 -60.2313 -60.2219
   -60.2211 -60.2192 -60.2190 -60.2186 -60.2183 -60.2179 -60.2164 -60.2160
   -34.5425 -34.5411 -34.5386 -34.4892 -34.4860 -34.4860 -34.4823 -34.4734
   -34.4670 -34.4206 -34.4042 -34.3877 -34.3799 -34.3654 -34.3562 -34.3558
   -34.3534 -34.3517 -34.3478 -34.3408 -34.3376 -34.3351 -34.3350 -34.3347
   -34.3244 -34.3160 -34.3157 -34.3141 -34.3122 -34.3103 -34.3100 -34.3092
   -34.3089 -34.3085 -34.3077 -34.3048 -34.3039 -34.2749 -34.2722 -34.2675
   -34.2397 -34.2383 -34.2355 -34.2269 -34.2214 -34.2154 -34.1937 -34.1873
   -13.3815 -12.8521 -12.7562 -12.6638 -12.4899 -12.4088 -12.3318 -12.0937
   -11.8779 -11.8389 -11.8090 -11.8013 -11.7612 -11.7312 -11.6989 -11.6688
   -11.6354 -11.6253 -11.5888 -11.5670 -11.5647 -11.4735 -11.4465 -11.4459
   -11.4268 -11.3962 -11.3808 -11.3741 -11.3715 -11.3430 -11.3004 -11.2868
    -5.0397  -5.0372  -5.0323  -4.8941  -4.5072  -4.4923  -4.4903  -4.4688
    -4.4410  -4.4392  -4.4077  -4.3970  -4.3964  -4.3510  -4.3428  -4.3395
    -4.3147  -4.3102  -4.2823  -4.1694  -4.1230  -4.0934  -4.0452  -3.9764
    -3.9025  -3.3796  -3.3756  -3.3703  -3.2474  -3.2266  -3.2116  -3.1920
    -3.1323  -3.1121  -3.0574  -3.0447  -3.0415  -3.0402  -3.0126  -3.0109
    -3.0072  -2.9923  -2.9472  -2.7709  -2.6518  -2.6302  -2.6127  -2.5646
    -2.5584  -2.5326  -2.5287  -2.5146  -2.5063  -2.4874  -2.4586  -2.4287
    -2.4047  -2.0969  -2.0686  -2.0595  -2.0501  -2.0462  -1.9720  -1.9374
    -1.9033  -1.8764  -1.8660  -1.7774  -1.6084  -1.3991  -1.3418  -1.3229
    -1.2530  -1.1882  -1.1872  -1.1822  -1.1783  -1.1478  -1.1163  -1.0336
    -1.0326  -0.9541  -0.9276  -0.9178  -0.8282  -0.8136  -0.7573  -0.7166
    -0.6743  -0.6276  -0.5801  -0.5188  -0.5123  -0.4965  -0.4888  -0.3924
    -0.2471  -0.1880  -0.1293  -0.0361  -0.0283  -0.0050   0.0144   0.0679
     0.0968   0.1015   0.1122   0.1690   0.1966   0.2849   0.3273   0.6555
     2.6268   2.6792   2.7575   2.7719   2.7834   2.7943   2.8042   2.8112
     2.8328   2.8361   2.8503   2.8504   2.8650   2.8653   2.8716   2.9158
     2.9842   3.0105   3.0528   3.0849   3.1340   3.2199   3.2452   3.3041
     3.3244   3.3255   3.3358   3.3592   3.3713   3.3728   3.3825   3.4503
     3.4868   3.5383   3.5431   3.6037   3.6564   3.6599   3.6880   3.7137
     3.7613   3.7819   3.8039   3.8064   3.8156   3.8371   4.1758   4.3056
     4.4094   4.4657   4.5084   4.5423

     occupation numbers 
     1.0000   1.0000   1.0000   1.0000   1.0000   1.0000   1.0000   1.0000
     1.0000   1.0000   1.0000   1.0000   1.0000   1.0000   1.0000   1.0000
     1.0000   1.0000   1.0000   1.0000   1.0000   1.0000   1.0000   1.0000
     1.0000   1.0000   1.0000   1.0000   1.0000   1.0000   1.0000   1.0000
     1.0000   1.0000   1.0000   1.0000   1.0000   1.0000   1.0000   1.0000
     1.0000   1.0000   1.0000   1.0000   1.0000   1.0000   1.0000   1.0000
     1.0000   1.0000   1.0000   1.0000   1.0000   1.0000   1.0000   1.0000
     1.0000   1.0000   1.0000   1.0000   1.0000   1.0000   1.0000   1.0000
     1.0000   1.0000   1.0000   1.0000   1.0000   1.0000   1.0000   1.0000
     1.0000   1.0000   1.0000   1.0000   1.0000   1.0000   1.0000   1.0000
     1.0000   1.0000   1.0000   1.0000   1.0000   1.0000   1.0000   1.0000
     1.0000   1.0000   1.0000   1.0000   1.0000   1.0000   1.0000   1.0000
     1.0000   1.0000   1.0000   1.0000   1.0000   1.0000   1.0000   1.0000
     1.0000   1.0000   1.0000   1.0000   1.0000   1.0000   1.0000   1.0000
     1.0000   1.0000   1.0000   1.0000   1.0000   1.0000   1.0000   1.0000
     1.0000   1.0000   1.0000   1.0000   1.0000   1.0000   1.0000   1.0000
     1.0000   1.0000   1.0000   1.0000   1.0000   1.0000   1.0000   1.0000
     1.0000   1.0000   1.0000   1.0000   1.0000   1.0000   1.0000   1.0000
     1.0000   1.0000   1.0000   1.0000   1.0000   1.0000   1.0000   1.0000
     1.0000   1.0000   1.0000   1.0000   1.0000   1.0000   1.0000   1.0000
     1.0000   1.0000   1.0000   1.0000   1.0000   1.0000   1.0000   1.0000
     1.0000   1.0000   1.0000   1.0000   1.0000   1.0000   1.0000   1.0000
     1.0000   1.0000   1.0000   1.0000   1.0000   1.0000   1.0000   1.0000
     1.0000   1.0000   1.0000   1.0000   1.0000   1.0000   1.0000   1.0000
     1.0000   1.0000   1.0000   1.0000   1.0000   1.0000   1.0000   1.0000
     1.0000   1.0000   1.0000   1.0000   1.0000   1.0000   1.0000   1.0000
     0.0000   0.0000   0.0000   0.0000   0.0000   0.0000   0.0000   0.0000
     0.0000   0.0000   0.0000   0.0000   0.0000   0.0000   0.0000   0.0000
     0.0000   0.0000   0.0000   0.0000   0.0000   0.0000   0.0000   0.0000
     0.0000   0.0000   0.0000   0.0000   0.0000   0.0000   0.0000   0.0000
     0.0000   0.0000   0.0000   0.0000   0.0000   0.0000   0.0000   0.0000
     0.0000   0.0000   0.0000   0.0000   0.0000   0.0000   0.0000   0.0000
     0.0000   0.0000   0.0000   0.0000

          k = 0.0417 0.2646 0.0000 (126291 PWs)   bands (ev):

   -60.2534 -60.2429 -60.2401 -60.2382 -60.2335 -60.2320 -60.2301 -60.2226
   -60.2218 -60.2196 -60.2190 -60.2187 -60.2182 -60.2179 -60.2160 -60.2156
   -34.5406 -34.5389 -34.5349 -34.4927 -34.4894 -34.4868 -34.4821 -34.4708
   -34.4635 -34.4316 -34.4102 -34.3941 -34.3792 -34.3701 -34.3601 -34.3580
   -34.3525 -34.3490 -34.3486 -34.3392 -34.3362 -34.3324 -34.3313 -34.3307
   -34.3211 -34.3173 -34.3156 -34.3111 -34.3100 -34.3092 -34.3084 -34.3077
   -34.3059 -34.3047 -34.3040 -34.3032 -34.3030 -34.2774 -34.2740 -34.2666
   -34.2423 -34.2412 -34.2387 -34.2269 -34.2212 -34.2128 -34.1976 -34.1882
   -13.3657 -12.9040 -12.7744 -12.6813 -12.4505 -12.3711 -12.2720 -12.0872
   -11.8989 -11.8548 -11.8461 -11.8083 -11.8044 -11.7151 -11.6836 -11.6501
   -11.6451 -11.6336 -11.5922 -11.5658 -11.5644 -11.4661 -11.4488 -11.4456
   -11.4228 -11.4055 -11.3810 -11.3746 -11.3697 -11.3442 -11.2895 -11.2763
    -5.0183  -5.0154  -5.0077  -4.8759  -4.5374  -4.5275  -4.5246  -4.4778
    -4.4702  -4.4469  -4.4356  -4.4305  -4.3831  -4.3602  -4.3475  -4.3173
    -4.3150  -4.3091  -4.2755  -4.1659  -4.1325  -4.0963  -4.0198  -3.9067
    -3.8287  -3.3713  -3.3663  -3.3587  -3.3214  -3.2304  -3.2122  -3.1974
    -3.1713  -3.0976  -3.0922  -3.0776  -3.0744  -3.0518  -3.0461  -3.0256
    -3.0227  -3.0111  -2.8853  -2.7287  -2.6346  -2.6172  -2.6103  -2.5910
    -2.5597  -2.5270  -2.5146  -2.5059  -2.4749  -2.4509  -2.4341  -2.4266
    -2.4019  -2.1302  -2.1168  -2.1027  -2.0858  -2.0082  -1.9309  -1.9208
    -1.8887  -1.7976  -1.7859  -1.7847  -1.5541  -1.4501  -1.4149  -1.3478
    -1.2805  -1.2289  -1.1883  -1.1820  -1.1748  -1.1688  -1.1140  -1.0432
    -1.0334  -0.9681  -0.9533  -0.8670  -0.8645  -0.7816  -0.7217  -0.7086
    -0.6624  -0.6249  -0.6167  -0.5953  -0.4688  -0.4647  -0.4458  -0.4081
    -0.2725  -0.1988  -0.1476  -0.0604  -0.0549  -0.0313   0.0346   0.0839
     0.1011   0.1227   0.1310   0.1719   0.2514   0.3243   0.3679   0.6473
     2.5856   2.6426   2.7331   2.7591   2.7593   2.7866   2.7982   2.8014
     2.8164   2.8407   2.8461   2.8610   2.8679   2.8715   2.8743   2.9273
     3.0023   3.0224   3.0668   3.0980   3.1689   3.2006   3.2184   3.2676
     3.2809   3.3032   3.3141   3.3233   3.3558   3.3684   3.3854   3.4786
     3.4808   3.4996   3.5388   3.5855   3.6410   3.6597   3.7036   3.7468
     3.7853   3.8164   3.8210   3.8546   3.8664   3.8747   4.1208   4.3047
     4.4128   4.4469   4.5073   4.5483

     occupation numbers 
     1.0000   1.0000   1.0000   1.0000   1.0000   1.0000   1.0000   1.0000
     1.0000   1.0000   1.0000   1.0000   1.0000   1.0000   1.0000   1.0000
     1.0000   1.0000   1.0000   1.0000   1.0000   1.0000   1.0000   1.0000
     1.0000   1.0000   1.0000   1.0000   1.0000   1.0000   1.0000   1.0000
     1.0000   1.0000   1.0000   1.0000   1.0000   1.0000   1.0000   1.0000
     1.0000   1.0000   1.0000   1.0000   1.0000   1.0000   1.0000   1.0000
     1.0000   1.0000   1.0000   1.0000   1.0000   1.0000   1.0000   1.0000
     1.0000   1.0000   1.0000   1.0000   1.0000   1.0000   1.0000   1.0000
     1.0000   1.0000   1.0000   1.0000   1.0000   1.0000   1.0000   1.0000
     1.0000   1.0000   1.0000   1.0000   1.0000   1.0000   1.0000   1.0000
     1.0000   1.0000   1.0000   1.0000   1.0000   1.0000   1.0000   1.0000
     1.0000   1.0000   1.0000   1.0000   1.0000   1.0000   1.0000   1.0000
     1.0000   1.0000   1.0000   1.0000   1.0000   1.0000   1.0000   1.0000
     1.0000   1.0000   1.0000   1.0000   1.0000   1.0000   1.0000   1.0000
     1.0000   1.0000   1.0000   1.0000   1.0000   1.0000   1.0000   1.0000
     1.0000   1.0000   1.0000   1.0000   1.0000   1.0000   1.0000   1.0000
     1.0000   1.0000   1.0000   1.0000   1.0000   1.0000   1.0000   1.0000
     1.0000   1.0000   1.0000   1.0000   1.0000   1.0000   1.0000   1.0000
     1.0000   1.0000   1.0000   1.0000   1.0000   1.0000   1.0000   1.0000
     1.0000   1.0000   1.0000   1.0000   1.0000   1.0000   1.0000   1.0000
     1.0000   1.0000   1.0000   1.0000   1.0000   1.0000   1.0000   1.0000
     1.0000   1.0000   1.0000   1.0000   1.0000   1.0000   1.0000   1.0000
     1.0000   1.0000   1.0000   1.0000   1.0000   1.0000   1.0000   1.0000
     1.0000   1.0000   1.0000   1.0000   1.0000   1.0000   1.0000   1.0000
     1.0000   1.0000   1.0000   1.0000   1.0000   1.0000   1.0000   1.0000
     1.0000   1.0000   1.0000   1.0000   1.0000   1.0000   1.0000   1.0000
     0.0000   0.0000   0.0000   0.0000   0.0000   0.0000   0.0000   0.0000
     0.0000   0.0000   0.0000   0.0000   0.0000   0.0000   0.0000   0.0000
     0.0000   0.0000   0.0000   0.0000   0.0000   0.0000   0.0000   0.0000
     0.0000   0.0000   0.0000   0.0000   0.0000   0.0000   0.0000   0.0000
     0.0000   0.0000   0.0000   0.0000   0.0000   0.0000   0.0000   0.0000
     0.0000   0.0000   0.0000   0.0000   0.0000   0.0000   0.0000   0.0000
     0.0000   0.0000   0.0000   0.0000

          k = 0.0417 0.3127 0.0000 (126311 PWs)   bands (ev):

   -60.2529 -60.2440 -60.2404 -60.2385 -60.2327 -60.2313 -60.2291 -60.2234
   -60.2225 -60.2200 -60.2190 -60.2187 -60.2182 -60.2179 -60.2157 -60.2153
   -34.5383 -34.5363 -34.5305 -34.4965 -34.4932 -34.4875 -34.4817 -34.4678
   -34.4596 -34.4424 -34.4161 -34.4004 -34.3783 -34.3743 -34.3635 -34.3602
   -34.3531 -34.3492 -34.3450 -34.3376 -34.3347 -34.3302 -34.3271 -34.3267
   -34.3189 -34.3173 -34.3171 -34.3120 -34.3099 -34.3093 -34.3083 -34.3078
   -34.3033 -34.3025 -34.2997 -34.2971 -34.2937 -34.2803 -34.2763 -34.2656
   -34.2448 -34.2445 -34.2422 -34.2271 -34.2211 -34.2102 -34.2022 -34.1892
   -13.3468 -12.9540 -12.7901 -12.6963 -12.4096 -12.3320 -12.2126 -12.0795
   -11.9193 -11.9014 -11.8524 -11.8485 -11.8142 -11.6984 -11.6794 -11.6676
   -11.6315 -11.6217 -11.5957 -11.5647 -11.5641 -11.4860 -11.4647 -11.4272
   -11.4165 -11.4027 -11.3809 -11.3751 -11.3677 -11.3456 -11.2800 -11.2671
    -4.9928  -4.9899  -4.9787  -4.8544  -4.5717  -4.5611  -4.5599  -4.5112
    -4.4904  -4.4692  -4.4672  -4.4284  -4.3702  -4.3695  -4.3519  -4.3215
    -4.3083  -4.2904  -4.2677  -4.1617  -4.1429  -4.1001  -3.9896  -3.8366
    -3.7541  -3.3935  -3.3613  -3.3553  -3.3457  -3.2331  -3.2113  -3.2100
    -3.1992  -3.1260  -3.1104  -3.1098  -3.0923  -3.0860  -3.0841  -3.0450
    -3.0317  -3.0056  -2.8201  -2.6873  -2.6341  -2.6166  -2.6137  -2.5698
    -2.5541  -2.5252  -2.5145  -2.5060  -2.4601  -2.4424  -2.4107  -2.3761
    -2.3692  -2.1941  -2.1885  -2.1441  -2.1276  -1.9624  -1.9122  -1.9011
    -1.8228  -1.7976  -1.7040  -1.6969  -1.4998  -1.4997  -1.4900  -1.3704
    -1.3055  -1.2667  -1.2256  -1.1757  -1.1656  -1.1574  -1.1201  -1.0541
    -1.0438  -0.9840  -0.9835  -0.8994  -0.8177  -0.7531  -0.7519  -0.6989
    -0.6895  -0.6797  -0.6056  -0.5787  -0.4454  -0.4269  -0.4190  -0.4035
    -0.2901  -0.2045  -0.1619  -0.0847  -0.0822  -0.0554   0.0525   0.0977
     0.1057   0.1413   0.1468   0.1750   0.3038   0.3615   0.4061   0.6368
     2.5460   2.6073   2.7094   2.7364   2.7478   2.7585   2.7927   2.7939
     2.8095   2.8415   2.8459   2.8520   2.8708   2.8760   2.8984   2.9484
     3.0216   3.0364   3.0785   3.1090   3.1862   3.1984   3.2047   3.2370
     3.2389   3.2764   3.2779   3.2907   3.3528   3.3651   3.3890   3.4505
     3.4738   3.5118   3.5381   3.5642   3.6227   3.6603   3.6937   3.7881
     3.8009   3.8249   3.8756   3.9000   3.9187   3.9280   4.0650   4.3061
     4.4176   4.4243   4.4971   4.5411

     occupation numbers 
     1.0000   1.0000   1.0000   1.0000   1.0000   1.0000   1.0000   1.0000
     1.0000   1.0000   1.0000   1.0000   1.0000   1.0000   1.0000   1.0000
     1.0000   1.0000   1.0000   1.0000   1.0000   1.0000   1.0000   1.0000
     1.0000   1.0000   1.0000   1.0000   1.0000   1.0000   1.0000   1.0000
     1.0000   1.0000   1.0000   1.0000   1.0000   1.0000   1.0000   1.0000
     1.0000   1.0000   1.0000   1.0000   1.0000   1.0000   1.0000   1.0000
     1.0000   1.0000   1.0000   1.0000   1.0000   1.0000   1.0000   1.0000
     1.0000   1.0000   1.0000   1.0000   1.0000   1.0000   1.0000   1.0000
     1.0000   1.0000   1.0000   1.0000   1.0000   1.0000   1.0000   1.0000
     1.0000   1.0000   1.0000   1.0000   1.0000   1.0000   1.0000   1.0000
     1.0000   1.0000   1.0000   1.0000   1.0000   1.0000   1.0000   1.0000
     1.0000   1.0000   1.0000   1.0000   1.0000   1.0000   1.0000   1.0000
     1.0000   1.0000   1.0000   1.0000   1.0000   1.0000   1.0000   1.0000
     1.0000   1.0000   1.0000   1.0000   1.0000   1.0000   1.0000   1.0000
     1.0000   1.0000   1.0000   1.0000   1.0000   1.0000   1.0000   1.0000
     1.0000   1.0000   1.0000   1.0000   1.0000   1.0000   1.0000   1.0000
     1.0000   1.0000   1.0000   1.0000   1.0000   1.0000   1.0000   1.0000
     1.0000   1.0000   1.0000   1.0000   1.0000   1.0000   1.0000   1.0000
     1.0000   1.0000   1.0000   1.0000   1.0000   1.0000   1.0000   1.0000
     1.0000   1.0000   1.0000   1.0000   1.0000   1.0000   1.0000   1.0000
     1.0000   1.0000   1.0000   1.0000   1.0000   1.0000   1.0000   1.0000
     1.0000   1.0000   1.0000   1.0000   1.0000   1.0000   1.0000   1.0000
     1.0000   1.0000   1.0000   1.0000   1.0000   1.0000   1.0000   1.0000
     1.0000   1.0000   1.0000   1.0000   1.0000   1.0000   1.0000   1.0000
     1.0000   1.0000   1.0000   1.0000   1.0000   1.0000   1.0000   1.0000
     1.0000   1.0000   1.0000   1.0000   1.0000   1.0000   1.0000   1.0000
     0.0000   0.0000   0.0000   0.0000   0.0000   0.0000   0.0000   0.0000
     0.0000   0.0000   0.0000   0.0000   0.0000   0.0000   0.0000   0.0000
     0.0000   0.0000   0.0000   0.0000   0.0000   0.0000   0.0000   0.0000
     0.0000   0.0000   0.0000   0.0000   0.0000   0.0000   0.0000   0.0000
     0.0000   0.0000   0.0000   0.0000   0.0000   0.0000   0.0000   0.0000
     0.0000   0.0000   0.0000   0.0000   0.0000   0.0000   0.0000   0.0000
     0.0000   0.0000   0.0000   0.0000

          k = 0.0417 0.3608 0.0000 (126323 PWs)   bands (ev):

   -60.2524 -60.2450 -60.2407 -60.2387 -60.2319 -60.2305 -60.2280 -60.2242
   -60.2233 -60.2206 -60.2190 -60.2187 -60.2182 -60.2179 -60.2154 -60.2150
   -34.5356 -34.5333 -34.5255 -34.5006 -34.4972 -34.4880 -34.4813 -34.4645
   -34.4554 -34.4529 -34.4219 -34.4066 -34.3779 -34.3772 -34.3664 -34.3624
   -34.3537 -34.3497 -34.3416 -34.3360 -34.3331 -34.3281 -34.3232 -34.3227
   -34.3205 -34.3186 -34.3133 -34.3131 -34.3099 -34.3094 -34.3083 -34.3078
   -34.3028 -34.3020 -34.2936 -34.2913 -34.2835 -34.2830 -34.2789 -34.2644
   -34.2481 -34.2473 -34.2460 -34.2273 -34.2211 -34.2078 -34.2075 -34.1904
   -13.3248 -13.0020 -12.8033 -12.7089 -12.3672 -12.2915 -12.1540 -12.0705
   -11.9486 -11.9388 -11.8932 -11.8577 -11.8192 -11.7129 -11.6810 -11.6510
   -11.6291 -11.5993 -11.5987 -11.5640 -11.5638 -11.5060 -11.4839 -11.4290
   -11.4090 -11.3857 -11.3808 -11.3758 -11.3657 -11.3472 -11.2719 -11.2594
    -4.9637  -4.9607  -4.9457  -4.8296  -4.6093  -4.6009  -4.5871  -4.5393
    -4.5370  -4.5059  -4.4661  -4.4198  -4.3809  -4.3563  -4.3557  -4.3275
    -4.3078  -4.2666  -4.2587  -4.1569  -4.1541  -4.1047  -3.9547  -3.7667
    -3.6795  -3.4634  -3.3495  -3.3425  -3.3316  -3.2530  -3.2359  -3.2050
    -3.1973  -3.1580  -3.1438  -3.1421  -3.1346  -3.1268  -3.0721  -3.0650
    -3.0533  -2.9904  -2.7525  -2.6475  -2.6289  -2.6283  -2.6104  -2.5481
    -2.5314  -2.5233  -2.5144  -2.5069  -2.4535  -2.4428  -2.3893  -2.3524
    -2.2876  -2.2591  -2.2580  -2.1835  -2.1751  -1.9956  -1.8782  -1.8506
    -1.8108  -1.7007  -1.6247  -1.6102  -1.5667  -1.5478  -1.4455  -1.3901
    -1.3271  -1.3007  -1.2587  -1.1683  -1.1547  -1.1441  -1.1350  -1.0659
    -1.0641  -1.0177  -1.0014  -0.9326  -0.8471  -0.7706  -0.7701  -0.7285
    -0.6890  -0.6611  -0.5954  -0.5368  -0.4488  -0.4268  -0.3771  -0.3643
    -0.2999  -0.2051  -0.1716  -0.1165  -0.1018  -0.0777   0.0679   0.1087
     0.1105   0.1572   0.1596   0.1781   0.3531   0.3952   0.4408   0.6239
     2.5098   2.5748   2.6880   2.7162   2.7300   2.7380   2.7686   2.7880
     2.8183   2.8370   2.8431   2.8513   2.8733   2.8763   2.9311   2.9738
     3.0412   3.0516   3.0881   3.1179   3.1743   3.1827   3.2005   3.2129
     3.2340   3.2410   3.2502   3.2669   3.3502   3.3616   3.3936   3.3972
     3.4661   3.5372   3.5399   3.5493   3.6054   3.6593   3.6845   3.7902
     3.8320   3.8487   3.9236   3.9513   3.9686   3.9881   4.0088   4.3088
     4.3976   4.4229   4.4734   4.5138

     occupation numbers 
     1.0000   1.0000   1.0000   1.0000   1.0000   1.0000   1.0000   1.0000
     1.0000   1.0000   1.0000   1.0000   1.0000   1.0000   1.0000   1.0000
     1.0000   1.0000   1.0000   1.0000   1.0000   1.0000   1.0000   1.0000
     1.0000   1.0000   1.0000   1.0000   1.0000   1.0000   1.0000   1.0000
     1.0000   1.0000   1.0000   1.0000   1.0000   1.0000   1.0000   1.0000
     1.0000   1.0000   1.0000   1.0000   1.0000   1.0000   1.0000   1.0000
     1.0000   1.0000   1.0000   1.0000   1.0000   1.0000   1.0000   1.0000
     1.0000   1.0000   1.0000   1.0000   1.0000   1.0000   1.0000   1.0000
     1.0000   1.0000   1.0000   1.0000   1.0000   1.0000   1.0000   1.0000
     1.0000   1.0000   1.0000   1.0000   1.0000   1.0000   1.0000   1.0000
     1.0000   1.0000   1.0000   1.0000   1.0000   1.0000   1.0000   1.0000
     1.0000   1.0000   1.0000   1.0000   1.0000   1.0000   1.0000   1.0000
     1.0000   1.0000   1.0000   1.0000   1.0000   1.0000   1.0000   1.0000
     1.0000   1.0000   1.0000   1.0000   1.0000   1.0000   1.0000   1.0000
     1.0000   1.0000   1.0000   1.0000   1.0000   1.0000   1.0000   1.0000
     1.0000   1.0000   1.0000   1.0000   1.0000   1.0000   1.0000   1.0000
     1.0000   1.0000   1.0000   1.0000   1.0000   1.0000   1.0000   1.0000
     1.0000   1.0000   1.0000   1.0000   1.0000   1.0000   1.0000   1.0000
     1.0000   1.0000   1.0000   1.0000   1.0000   1.0000   1.0000   1.0000
     1.0000   1.0000   1.0000   1.0000   1.0000   1.0000   1.0000   1.0000
     1.0000   1.0000   1.0000   1.0000   1.0000   1.0000   1.0000   1.0000
     1.0000   1.0000   1.0000   1.0000   1.0000   1.0000   1.0000   1.0000
     1.0000   1.0000   1.0000   1.0000   1.0000   1.0000   1.0000   1.0000
     1.0000   1.0000   1.0000   1.0000   1.0000   1.0000   1.0000   1.0000
     1.0000   1.0000   1.0000   1.0000   1.0000   1.0000   1.0000   1.0000
     1.0000   1.0000   1.0000   1.0000   1.0000   1.0000   1.0000   1.0000
     0.0000   0.0000   0.0000   0.0000   0.0000   0.0000   0.0000   0.0000
     0.0000   0.0000   0.0000   0.0000   0.0000   0.0000   0.0000   0.0000
     0.0000   0.0000   0.0000   0.0000   0.0000   0.0000   0.0000   0.0000
     0.0000   0.0000   0.0000   0.0000   0.0000   0.0000   0.0000   0.0000
     0.0000   0.0000   0.0000   0.0000   0.0000   0.0000   0.0000   0.0000
     0.0000   0.0000   0.0000   0.0000   0.0000   0.0000   0.0000   0.0000
     0.0000   0.0000   0.0000   0.0000

          k = 0.0417 0.4090 0.0000 (126329 PWs)   bands (ev):

   -60.2518 -60.2460 -60.2409 -60.2389 -60.2311 -60.2297 -60.2270 -60.2251
   -60.2241 -60.2212 -60.2190 -60.2188 -60.2181 -60.2179 -60.2152 -60.2148
   -34.5326 -34.5301 -34.5197 -34.5049 -34.5015 -34.4883 -34.4808 -34.4629
   -34.4609 -34.4509 -34.4276 -34.4128 -34.3809 -34.3761 -34.3688 -34.3644
   -34.3541 -34.3501 -34.3388 -34.3343 -34.3315 -34.3260 -34.3222 -34.3204
   -34.3202 -34.3181 -34.3143 -34.3099 -34.3095 -34.3092 -34.3082 -34.3078
   -34.3023 -34.3016 -34.2876 -34.2870 -34.2856 -34.2819 -34.2726 -34.2630
   -34.2520 -34.2501 -34.2497 -34.2276 -34.2212 -34.2136 -34.2054 -34.1918
   -13.2998 -13.0479 -12.8138 -12.7191 -12.3236 -12.2499 -12.0965 -12.0603
   -11.9963 -11.9575 -11.9384 -11.8619 -11.8232 -11.7504 -11.6630 -11.6339
   -11.6264 -11.6029 -11.5762 -11.5634 -11.5634 -11.5262 -11.5032 -11.4432
   -11.3943 -11.3805 -11.3764 -11.3720 -11.3636 -11.3490 -11.2653 -11.2531
    -4.9310  -4.9283  -4.9090  -4.8018  -4.6492  -4.6430  -4.6090  -4.5855
    -4.5619  -4.5459  -4.4610  -4.4100  -4.3921  -4.3588  -4.3444  -4.3350
    -4.3075  -4.2489  -4.2449  -4.1659  -4.1517  -4.1099  -3.9153  -3.6979
    -3.6058  -3.5310  -3.3360  -3.3279  -3.3169  -3.2969  -3.2399  -3.1972
    -3.1918  -3.1877  -3.1796  -3.1742  -3.1722  -3.1648  -3.0852  -3.0754
    -3.0620  -2.9778  -2.6834  -2.6387  -2.6165  -2.6108  -2.5982  -2.5419
    -2.5214  -2.5144  -2.5087  -2.4964  -2.4610  -2.4231  -2.3707  -2.3317
    -2.3269  -2.3201  -2.2276  -2.2210  -2.2061  -2.0280  -1.8783  -1.8523
    -1.7054  -1.6445  -1.5994  -1.5940  -1.5479  -1.5267  -1.4064  -1.3918
    -1.3451  -1.3296  -1.2868  -1.1599  -1.1593  -1.1421  -1.1287  -1.0944
    -1.0783  -1.0556  -1.0198  -0.9641  -0.9472  -0.8668  -0.7246  -0.7080
    -0.6802  -0.6366  -0.5873  -0.4999  -0.4737  -0.4138  -0.3412  -0.3302
    -0.3017  -0.2011  -0.1769  -0.1492  -0.1193  -0.0984   0.0804   0.1152
     0.1169   0.1695   0.1702   0.1809   0.3989   0.4240   0.4706   0.6083
     2.4784   2.5465   2.6701   2.6999   2.7036   2.7300   2.7435   2.7842
     2.8275   2.8327   2.8357   2.8567   2.8750   2.8751   2.9694   3.0018
     3.0606   3.0674   3.0956   3.1248   3.1633   3.1673   3.1693   3.1955
     3.1978   3.2207   3.2438   3.2775   3.3410   3.3484   3.3582   3.3992
     3.4576   3.5130   3.5370   3.5895   3.5909   3.6578   3.6762   3.7918
     3.8375   3.8888   3.9525   3.9637   4.0077   4.0237   4.0462   4.3120
     4.3669   4.4279   4.4350   4.4678

     occupation numbers 
     1.0000   1.0000   1.0000   1.0000   1.0000   1.0000   1.0000   1.0000
     1.0000   1.0000   1.0000   1.0000   1.0000   1.0000   1.0000   1.0000
     1.0000   1.0000   1.0000   1.0000   1.0000   1.0000   1.0000   1.0000
     1.0000   1.0000   1.0000   1.0000   1.0000   1.0000   1.0000   1.0000
     1.0000   1.0000   1.0000   1.0000   1.0000   1.0000   1.0000   1.0000
     1.0000   1.0000   1.0000   1.0000   1.0000   1.0000   1.0000   1.0000
     1.0000   1.0000   1.0000   1.0000   1.0000   1.0000   1.0000   1.0000
     1.0000   1.0000   1.0000   1.0000   1.0000   1.0000   1.0000   1.0000
     1.0000   1.0000   1.0000   1.0000   1.0000   1.0000   1.0000   1.0000
     1.0000   1.0000   1.0000   1.0000   1.0000   1.0000   1.0000   1.0000
     1.0000   1.0000   1.0000   1.0000   1.0000   1.0000   1.0000   1.0000
     1.0000   1.0000   1.0000   1.0000   1.0000   1.0000   1.0000   1.0000
     1.0000   1.0000   1.0000   1.0000   1.0000   1.0000   1.0000   1.0000
     1.0000   1.0000   1.0000   1.0000   1.0000   1.0000   1.0000   1.0000
     1.0000   1.0000   1.0000   1.0000   1.0000   1.0000   1.0000   1.0000
     1.0000   1.0000   1.0000   1.0000   1.0000   1.0000   1.0000   1.0000
     1.0000   1.0000   1.0000   1.0000   1.0000   1.0000   1.0000   1.0000
     1.0000   1.0000   1.0000   1.0000   1.0000   1.0000   1.0000   1.0000
     1.0000   1.0000   1.0000   1.0000   1.0000   1.0000   1.0000   1.0000
     1.0000   1.0000   1.0000   1.0000   1.0000   1.0000   1.0000   1.0000
     1.0000   1.0000   1.0000   1.0000   1.0000   1.0000   1.0000   1.0000
     1.0000   1.0000   1.0000   1.0000   1.0000   1.0000   1.0000   1.0000
     1.0000   1.0000   1.0000   1.0000   1.0000   1.0000   1.0000   1.0000
     1.0000   1.0000   1.0000   1.0000   1.0000   1.0000   1.0000   1.0000
     1.0000   1.0000   1.0000   1.0000   1.0000   1.0000   1.0000   1.0000
     1.0000   1.0000   1.0000   1.0000   1.0000   1.0000   1.0000   1.0000
     0.0000   0.0000   0.0000   0.0000   0.0000   0.0000   0.0000   0.0000
     0.0000   0.0000   0.0000   0.0000   0.0000   0.0000   0.0000   0.0000
     0.0000   0.0000   0.0000   0.0000   0.0000   0.0000   0.0000   0.0000
     0.0000   0.0000   0.0000   0.0000   0.0000   0.0000   0.0000   0.0000
     0.0000   0.0000   0.0000   0.0000   0.0000   0.0000   0.0000   0.0000
     0.0000   0.0000   0.0000   0.0000   0.0000   0.0000   0.0000   0.0000
     0.0000   0.0000   0.0000   0.0000

          k = 0.0417 0.4571 0.0000 (126369 PWs)   bands (ev):

   -60.2512 -60.2470 -60.2411 -60.2391 -60.2302 -60.2289 -60.2260 -60.2259
   -60.2249 -60.2218 -60.2189 -60.2188 -60.2181 -60.2180 -60.2150 -60.2147
   -34.5292 -34.5265 -34.5133 -34.5092 -34.5058 -34.4886 -34.4804 -34.4726
   -34.4569 -34.4461 -34.4330 -34.4188 -34.3833 -34.3747 -34.3706 -34.3664
   -34.3545 -34.3504 -34.3366 -34.3326 -34.3299 -34.3240 -34.3239 -34.3218
   -34.3182 -34.3156 -34.3134 -34.3098 -34.3095 -34.3081 -34.3079 -34.3050
   -34.3020 -34.3013 -34.2909 -34.2852 -34.2818 -34.2799 -34.2627 -34.2615
   -34.2563 -34.2545 -34.2519 -34.2278 -34.2214 -34.2203 -34.2031 -34.1934
   -13.2720 -13.0915 -12.8217 -12.7267 -12.2788 -12.2071 -12.0489 -12.0441
   -12.0403 -11.9838 -11.9753 -11.8650 -11.8262 -11.7915 -11.6445 -11.6235
   -11.6162 -11.6066 -11.5631 -11.5630 -11.5543 -11.5464 -11.5225 -11.4587
   -11.3832 -11.3801 -11.3771 -11.3616 -11.3614 -11.3509 -11.2604 -11.2483
    -4.8953  -4.8931  -4.8689  -4.7711  -4.6905  -4.6863  -4.6349  -4.6255
    -4.5861  -4.5790  -4.4541  -4.4034  -4.3992  -4.3612  -4.3439  -4.3344
    -4.3073  -4.2382  -4.2268  -4.1780  -4.1461  -4.1156  -3.8716  -3.6309
    -3.5959  -3.5338  -3.3437  -3.3207  -3.3114  -3.3022  -3.2456  -3.2280
    -3.2153  -3.2004  -3.1989  -3.1967  -3.1868  -3.1828  -3.1051  -3.0973
    -3.0540  -2.9679  -2.6448  -2.6138  -2.5979  -2.5792  -2.5792  -2.5357
    -2.5196  -2.5146  -2.5113  -2.4668  -2.4660  -2.4010  -2.3899  -2.3786
    -2.3558  -2.3149  -2.2846  -2.2565  -2.1248  -2.0571  -1.9033  -1.8233
    -1.7232  -1.6382  -1.5973  -1.4952  -1.4745  -1.4471  -1.4190  -1.3590
    -1.3526  -1.3388  -1.3088  -1.1926  -1.1504  -1.1342  -1.1278  -1.1113
    -1.0968  -1.0911  -1.0512  -1.0388  -0.9937  -0.9670  -0.6917  -0.6813
    -0.6734  -0.6164  -0.5821  -0.5015  -0.4685  -0.4067  -0.3127  -0.3030
    -0.2960  -0.1930  -0.1816  -0.1778  -0.1348  -0.1177   0.0899   0.1194
     0.1224   0.1768   0.1800   0.1833   0.4408   0.4470   0.4943   0.5896
     2.4533   2.5239   2.6569   2.6811   2.6886   2.7210   2.7239   2.7812
     2.8291   2.8302   2.8368   2.8619   2.8722   2.8756   3.0129   3.0315
     3.0794   3.0832   3.1011   3.1298   3.1410   3.1522   3.1566   3.1693
     3.1848   3.1899   3.2229   3.2832   3.3140   3.3474   3.3549   3.4058
     3.4487   3.4838   3.5381   3.5755   3.6359   3.6565   3.6691   3.7929
     3.8417   3.8965   3.9201   3.9950   4.0681   4.0833   4.1020   4.3149
     4.3321   4.3844   4.4099   4.4321

     occupation numbers 
     1.0000   1.0000   1.0000   1.0000   1.0000   1.0000   1.0000   1.0000
     1.0000   1.0000   1.0000   1.0000   1.0000   1.0000   1.0000   1.0000
     1.0000   1.0000   1.0000   1.0000   1.0000   1.0000   1.0000   1.0000
     1.0000   1.0000   1.0000   1.0000   1.0000   1.0000   1.0000   1.0000
     1.0000   1.0000   1.0000   1.0000   1.0000   1.0000   1.0000   1.0000
     1.0000   1.0000   1.0000   1.0000   1.0000   1.0000   1.0000   1.0000
     1.0000   1.0000   1.0000   1.0000   1.0000   1.0000   1.0000   1.0000
     1.0000   1.0000   1.0000   1.0000   1.0000   1.0000   1.0000   1.0000
     1.0000   1.0000   1.0000   1.0000   1.0000   1.0000   1.0000   1.0000
     1.0000   1.0000   1.0000   1.0000   1.0000   1.0000   1.0000   1.0000
     1.0000   1.0000   1.0000   1.0000   1.0000   1.0000   1.0000   1.0000
     1.0000   1.0000   1.0000   1.0000   1.0000   1.0000   1.0000   1.0000
     1.0000   1.0000   1.0000   1.0000   1.0000   1.0000   1.0000   1.0000
     1.0000   1.0000   1.0000   1.0000   1.0000   1.0000   1.0000   1.0000
     1.0000   1.0000   1.0000   1.0000   1.0000   1.0000   1.0000   1.0000
     1.0000   1.0000   1.0000   1.0000   1.0000   1.0000   1.0000   1.0000
     1.0000   1.0000   1.0000   1.0000   1.0000   1.0000   1.0000   1.0000
     1.0000   1.0000   1.0000   1.0000   1.0000   1.0000   1.0000   1.0000
     1.0000   1.0000   1.0000   1.0000   1.0000   1.0000   1.0000   1.0000
     1.0000   1.0000   1.0000   1.0000   1.0000   1.0000   1.0000   1.0000
     1.0000   1.0000   1.0000   1.0000   1.0000   1.0000   1.0000   1.0000
     1.0000   1.0000   1.0000   1.0000   1.0000   1.0000   1.0000   1.0000
     1.0000   1.0000   1.0000   1.0000   1.0000   1.0000   1.0000   1.0000
     1.0000   1.0000   1.0000   1.0000   1.0000   1.0000   1.0000   1.0000
     1.0000   1.0000   1.0000   1.0000   1.0000   1.0000   1.0000   1.0000
     1.0000   1.0000   1.0000   1.0000   1.0000   1.0000   1.0000   1.0000
     0.0000   0.0000   0.0000   0.0000   0.0000   0.0000   0.0000   0.0000
     0.0000   0.0000   0.0000   0.0000   0.0000   0.0000   0.0000   0.0000
     0.0000   0.0000   0.0000   0.0000   0.0000   0.0000   0.0000   0.0000
     0.0000   0.0000   0.0000   0.0000   0.0000   0.0000   0.0000   0.0000
     0.0000   0.0000   0.0000   0.0000   0.0000   0.0000   0.0000   0.0000
     0.0000   0.0000   0.0000   0.0000   0.0000   0.0000   0.0000   0.0000
     0.0000   0.0000   0.0000   0.0000

          k = 0.0417 0.5052 0.0000 (126351 PWs)   bands (ev):

   -60.2505 -60.2480 -60.2412 -60.2392 -60.2294 -60.2281 -60.2268 -60.2257
   -60.2250 -60.2225 -60.2189 -60.2188 -60.2181 -60.2180 -60.2149 -60.2146
   -34.5256 -34.5227 -34.5135 -34.5102 -34.5063 -34.4887 -34.4818 -34.4801
   -34.4527 -34.4411 -34.4383 -34.4247 -34.3849 -34.3733 -34.3718 -34.3683
   -34.3547 -34.3507 -34.3351 -34.3309 -34.3283 -34.3257 -34.3234 -34.3221
   -34.3171 -34.3167 -34.3098 -34.3096 -34.3086 -34.3081 -34.3079 -34.3017
   -34.3010 -34.3007 -34.2951 -34.2888 -34.2762 -34.2744 -34.2609 -34.2599
   -34.2591 -34.2541 -34.2531 -34.2280 -34.2276 -34.2215 -34.2009 -34.1950
   -13.2412 -13.1328 -12.8270 -12.7318 -12.2331 -12.1636 -12.0919 -12.0364
   -12.0292 -11.9921 -11.9858 -11.8671 -11.8359 -11.8282 -11.6255 -11.6204
   -11.6102 -11.5981 -11.5665 -11.5629 -11.5628 -11.5418 -11.5332 -11.4756
   -11.3796 -11.3778 -11.3757 -11.3592 -11.3547 -11.3528 -11.2571 -11.2451
    -4.8568  -4.8553  -4.8259  -4.7378  -4.7326  -4.7302  -4.6844  -4.6366
    -4.6260  -4.5904  -4.4458  -4.4148  -4.3879  -4.3629  -4.3540  -4.3273
    -4.3072  -4.2268  -4.2137  -4.1904  -4.1401  -4.1216  -3.8238  -3.6579
    -3.5665  -3.4646  -3.3938  -3.3036  -3.2931  -3.2880  -3.2805  -3.2534
    -3.2405  -3.2266  -3.2196  -3.2164  -3.1740  -3.1705  -3.1243  -3.1182
    -3.0486  -2.9612  -2.6483  -2.5720  -2.5555  -2.5533  -2.5444  -2.5297
    -2.5181  -2.5151  -2.5148  -2.4689  -2.4468  -2.4449  -2.4321  -2.3766
    -2.3455  -2.3453  -2.3031  -2.2898  -2.0794  -2.0437  -1.9224  -1.8026
    -1.7916  -1.6802  -1.4876  -1.4276  -1.4056  -1.3892  -1.3721  -1.3685
    -1.3684  -1.3241  -1.2869  -1.2347  -1.1827  -1.1581  -1.1409  -1.1399
    -1.1120  -1.1039  -1.0919  -1.0703  -1.0580  -1.0213  -0.6798  -0.6694
    -0.6402  -0.6007  -0.5804  -0.5322  -0.4431  -0.4059  -0.2930  -0.2841
    -0.2833  -0.2124  -0.1818  -0.1749  -0.1483  -0.1358   0.0964   0.1229
     0.1254   0.1816   0.1848   0.1867   0.4629   0.4786   0.5109   0.5675
     2.4358   2.5081   2.6493   2.6639   2.6829   2.7028   2.7198   2.7792
     2.8264   2.8266   2.8458   2.8666   2.8677   2.8751   3.0610   3.0624
     3.0972   3.0987   3.1046   3.1228   3.1331   3.1403   3.1434   3.1495
     3.1582   3.1809   3.2051   3.2252   3.3472   3.3500   3.3520   3.4133
     3.4396   3.4526   3.5411   3.5634   3.6562   3.6635   3.6839   3.7936
     3.8412   3.8444   3.9415   4.0164   4.1316   4.1465   4.1549   4.2934
     4.3172   4.3256   4.3459   4.4351

     occupation numbers 
     1.0000   1.0000   1.0000   1.0000   1.0000   1.0000   1.0000   1.0000
     1.0000   1.0000   1.0000   1.0000   1.0000   1.0000   1.0000   1.0000
     1.0000   1.0000   1.0000   1.0000   1.0000   1.0000   1.0000   1.0000
     1.0000   1.0000   1.0000   1.0000   1.0000   1.0000   1.0000   1.0000
     1.0000   1.0000   1.0000   1.0000   1.0000   1.0000   1.0000   1.0000
     1.0000   1.0000   1.0000   1.0000   1.0000   1.0000   1.0000   1.0000
     1.0000   1.0000   1.0000   1.0000   1.0000   1.0000   1.0000   1.0000
     1.0000   1.0000   1.0000   1.0000   1.0000   1.0000   1.0000   1.0000
     1.0000   1.0000   1.0000   1.0000   1.0000   1.0000   1.0000   1.0000
     1.0000   1.0000   1.0000   1.0000   1.0000   1.0000   1.0000   1.0000
     1.0000   1.0000   1.0000   1.0000   1.0000   1.0000   1.0000   1.0000
     1.0000   1.0000   1.0000   1.0000   1.0000   1.0000   1.0000   1.0000
     1.0000   1.0000   1.0000   1.0000   1.0000   1.0000   1.0000   1.0000
     1.0000   1.0000   1.0000   1.0000   1.0000   1.0000   1.0000   1.0000
     1.0000   1.0000   1.0000   1.0000   1.0000   1.0000   1.0000   1.0000
     1.0000   1.0000   1.0000   1.0000   1.0000   1.0000   1.0000   1.0000
     1.0000   1.0000   1.0000   1.0000   1.0000   1.0000   1.0000   1.0000
     1.0000   1.0000   1.0000   1.0000   1.0000   1.0000   1.0000   1.0000
     1.0000   1.0000   1.0000   1.0000   1.0000   1.0000   1.0000   1.0000
     1.0000   1.0000   1.0000   1.0000   1.0000   1.0000   1.0000   1.0000
     1.0000   1.0000   1.0000   1.0000   1.0000   1.0000   1.0000   1.0000
     1.0000   1.0000   1.0000   1.0000   1.0000   1.0000   1.0000   1.0000
     1.0000   1.0000   1.0000   1.0000   1.0000   1.0000   1.0000   1.0000
     1.0000   1.0000   1.0000   1.0000   1.0000   1.0000   1.0000   1.0000
     1.0000   1.0000   1.0000   1.0000   1.0000   1.0000   1.0000   1.0000
     1.0000   1.0000   1.0000   1.0000   1.0000   1.0000   1.0000   1.0000
     0.0000   0.0000   0.0000   0.0000   0.0000   0.0000   0.0000   0.0000
     0.0000   0.0000   0.0000   0.0000   0.0000   0.0000   0.0000   0.0000
     0.0000   0.0000   0.0000   0.0000   0.0000   0.0000   0.0000   0.0000
     0.0000   0.0000   0.0000   0.0000   0.0000   0.0000   0.0000   0.0000
     0.0000   0.0000   0.0000   0.0000   0.0000   0.0000   0.0000   0.0000
     0.0000   0.0000   0.0000   0.0000   0.0000   0.0000   0.0000   0.0000
     0.0000   0.0000   0.0000   0.0000

          k = 0.0417 0.5533 0.0000 (126301 PWs)   bands (ev):

   -60.2497 -60.2488 -60.2413 -60.2393 -60.2285 -60.2277 -60.2273 -60.2265
   -60.2242 -60.2233 -60.2189 -60.2189 -60.2180 -60.2180 -60.2149 -60.2145
   -34.5218 -34.5187 -34.5177 -34.5145 -34.4987 -34.4905 -34.4888 -34.4799
   -34.4482 -34.4434 -34.4359 -34.4304 -34.3857 -34.3724 -34.3717 -34.3701
   -34.3548 -34.3508 -34.3343 -34.3291 -34.3274 -34.3267 -34.3251 -34.3203
   -34.3186 -34.3159 -34.3097 -34.3097 -34.3080 -34.3080 -34.3040 -34.3016
   -34.3009 -34.2994 -34.2966 -34.2926 -34.2708 -34.2691 -34.2657 -34.2640
   -34.2581 -34.2561 -34.2441 -34.2356 -34.2281 -34.2215 -34.1988 -34.1969
   -13.2077 -13.1716 -12.8297 -12.7343 -12.1866 -12.1394 -12.1192 -12.0744
   -12.0227 -12.0079 -11.9334 -11.8833 -11.8682 -11.8292 -11.6171 -11.6137
   -11.6061 -11.5864 -11.5796 -11.5628 -11.5627 -11.5608 -11.5130 -11.4937
   -11.3791 -11.3784 -11.3720 -11.3571 -11.3549 -11.3512 -11.2554 -11.2435
    -4.8161  -4.8156  -4.7805  -4.7745  -4.7736  -4.7331  -4.7023  -4.6649
    -4.6422  -4.5961  -4.4363  -4.4258  -4.3763  -4.3649  -4.3637  -4.3236
    -4.3072  -4.2150  -4.2068  -4.2027  -4.1340  -4.1278  -3.7720  -3.7167
    -3.5052  -3.4476  -3.3989  -3.3375  -3.2846  -3.2748  -3.2729  -3.2636
    -3.2632  -3.2508  -3.2316  -3.2254  -3.1591  -3.1554  -3.1425  -3.1378
    -3.0458  -2.9578  -2.6499  -2.5425  -2.5382  -2.5241  -2.5200  -2.5191
    -2.5168  -2.5158  -2.4964  -2.4795  -2.4761  -2.4703  -2.4331  -2.4095
    -2.3499  -2.3400  -2.3210  -2.2970  -2.0917  -1.9629  -1.9329  -1.8825
    -1.7570  -1.7199  -1.4319  -1.3772  -1.3767  -1.3731  -1.3421  -1.3318
    -1.3025  -1.2848  -1.2823  -1.2671  -1.2390  -1.2363  -1.1876  -1.1757
    -1.1285  -1.1165  -1.0949  -1.0768  -1.0704  -1.0469  -0.6723  -0.6689
    -0.6016  -0.5895  -0.5828  -0.5656  -0.4241  -0.4117  -0.2829  -0.2743
    -0.2645  -0.2405  -0.1687  -0.1681  -0.1597  -0.1527   0.0996   0.1253
     0.1263   0.1843   0.1852   0.1900   0.4711   0.5122   0.5194   0.5418
     2.4268   2.4999   2.6477   2.6526   2.6833   2.6901   2.7177   2.7783
     2.8249   2.8249   2.8541   2.8615   2.8705   2.8734   3.0940   3.1064
     3.1131   3.1134   3.1135   3.1139   3.1261   3.1275   3.1292   3.1347
     3.1395   3.1681   3.1833   3.1916   3.3480   3.3496   3.3854   3.4197
     3.4216   3.4305   3.5462   3.5536   3.6571   3.6595   3.7344   3.7870
     3.7940   3.8458   3.9524   4.0272   4.1968   4.2046   4.2122   4.2508
     4.2622   4.2792   4.3184   4.4367

     occupation numbers 
     1.0000   1.0000   1.0000   1.0000   1.0000   1.0000   1.0000   1.0000
     1.0000   1.0000   1.0000   1.0000   1.0000   1.0000   1.0000   1.0000
     1.0000   1.0000   1.0000   1.0000   1.0000   1.0000   1.0000   1.0000
     1.0000   1.0000   1.0000   1.0000   1.0000   1.0000   1.0000   1.0000
     1.0000   1.0000   1.0000   1.0000   1.0000   1.0000   1.0000   1.0000
     1.0000   1.0000   1.0000   1.0000   1.0000   1.0000   1.0000   1.0000
     1.0000   1.0000   1.0000   1.0000   1.0000   1.0000   1.0000   1.0000
     1.0000   1.0000   1.0000   1.0000   1.0000   1.0000   1.0000   1.0000
     1.0000   1.0000   1.0000   1.0000   1.0000   1.0000   1.0000   1.0000
     1.0000   1.0000   1.0000   1.0000   1.0000   1.0000   1.0000   1.0000
     1.0000   1.0000   1.0000   1.0000   1.0000   1.0000   1.0000   1.0000
     1.0000   1.0000   1.0000   1.0000   1.0000   1.0000   1.0000   1.0000
     1.0000   1.0000   1.0000   1.0000   1.0000   1.0000   1.0000   1.0000
     1.0000   1.0000   1.0000   1.0000   1.0000   1.0000   1.0000   1.0000
     1.0000   1.0000   1.0000   1.0000   1.0000   1.0000   1.0000   1.0000
     1.0000   1.0000   1.0000   1.0000   1.0000   1.0000   1.0000   1.0000
     1.0000   1.0000   1.0000   1.0000   1.0000   1.0000   1.0000   1.0000
     1.0000   1.0000   1.0000   1.0000   1.0000   1.0000   1.0000   1.0000
     1.0000   1.0000   1.0000   1.0000   1.0000   1.0000   1.0000   1.0000
     1.0000   1.0000   1.0000   1.0000   1.0000   1.0000   1.0000   1.0000
     1.0000   1.0000   1.0000   1.0000   1.0000   1.0000   1.0000   1.0000
     1.0000   1.0000   1.0000   1.0000   1.0000   1.0000   1.0000   1.0000
     1.0000   1.0000   1.0000   1.0000   1.0000   1.0000   1.0000   1.0000
     1.0000   1.0000   1.0000   1.0000   1.0000   1.0000   1.0000   1.0000
     1.0000   1.0000   1.0000   1.0000   1.0000   1.0000   1.0000   1.0000
     1.0000   1.0000   1.0000   1.0000   1.0000   1.0000   1.0000   1.0000
     0.0000   0.0000   0.0000   0.0000   0.0000   0.0000   0.0000   0.0000
     0.0000   0.0000   0.0000   0.0000   0.0000   0.0000   0.0000   0.0000
     0.0000   0.0000   0.0000   0.0000   0.0000   0.0000   0.0000   0.0000
     0.0000   0.0000   0.0000   0.0000   0.0000   0.0000   0.0000   0.0000
     0.0000   0.0000   0.0000   0.0000   0.0000   0.0000   0.0000   0.0000
     0.0000   0.0000   0.0000   0.0000   0.0000   0.0000   0.0000   0.0000
     0.0000   0.0000   0.0000   0.0000

          k = 0.0833 0.1443 0.0000 (126309 PWs)   bands (ev):

   -60.2541 -60.2400 -60.2400 -60.2362 -60.2362 -60.2329 -60.2329 -60.2211
   -60.2197 -60.2197 -60.2187 -60.2187 -60.2183 -60.2174 -60.2173 -60.2164
   -34.5444 -34.5425 -34.5425 -34.4858 -34.4858 -34.4820 -34.4795 -34.4795
   -34.4699 -34.4037 -34.4037 -34.3806 -34.3698 -34.3698 -34.3609 -34.3522
   -34.3522 -34.3451 -34.3451 -34.3447 -34.3447 -34.3380 -34.3380 -34.3336
   -34.3336 -34.3230 -34.3230 -34.3151 -34.3142 -34.3113 -34.3113 -34.3094
   -34.3094 -34.3085 -34.3066 -34.3066 -34.3047 -34.2730 -34.2692 -34.2692
   -34.2363 -34.2363 -34.2299 -34.2299 -34.2198 -34.2198 -34.1901 -34.1865
   -13.3959 -12.7682 -12.7682 -12.5863 -12.5863 -12.4193 -12.4193 -12.0995
   -11.8438 -11.8438 -11.7702 -11.7702 -11.7647 -11.7035 -11.7035 -11.6768
   -11.6768 -11.5953 -11.5953 -11.5659 -11.5322 -11.5322 -11.4717 -11.4273
   -11.3906 -11.3906 -11.3847 -11.3847 -11.3723 -11.3270 -11.3270 -11.2983
    -5.0596  -5.0558  -5.0558  -4.9106  -4.4742  -4.4742  -4.4494  -4.4413
    -4.4387  -4.4387  -4.3586  -4.3582  -4.3582  -4.3528  -4.3528  -4.3432
    -4.3432  -4.3083  -4.3083  -4.1172  -4.1107  -4.1107  -4.0780  -4.0780
    -3.9745  -3.3875  -3.3824  -3.3823  -3.2148  -3.2148  -3.1589  -3.1589
    -3.1331  -3.1331  -3.0333  -3.0333  -3.0149  -3.0149  -2.9987  -2.9987
    -2.9740  -2.9719  -2.8938  -2.8938  -2.6543  -2.6543  -2.6227  -2.5871
    -2.5871  -2.5302  -2.5154  -2.5082  -2.5082  -2.5025  -2.5025  -2.4556
    -2.2767  -2.2767  -2.0172  -2.0096  -2.0095  -2.0079  -2.0079  -1.9556
    -1.9524  -1.9312  -1.9312  -1.7078  -1.7078  -1.3209  -1.3209  -1.2620
    -1.1924  -1.1874  -1.1874  -1.1742  -1.1742  -1.1452  -1.0645  -1.0645
    -1.0039  -1.0039  -0.9043  -0.8957  -0.8957  -0.7935  -0.7597  -0.7597
    -0.7331  -0.5974  -0.5974  -0.5322  -0.5322  -0.5047  -0.4076  -0.4076
    -0.1942  -0.1942  -0.0594  -0.0594  -0.0098   0.0203   0.0203   0.0573
     0.0573   0.0940   0.1097   0.1097   0.2044   0.2044   0.2856   0.6626
     2.6669   2.7544   2.7544   2.7817   2.7817   2.8243   2.8243   2.8287
     2.8324   2.8324   2.8409   2.8409   2.8578   2.8578   2.8689   2.9450
     2.9450   3.0173   3.0173   3.0839   3.0839   3.2465   3.3237   3.3237
     3.3534   3.3534   3.3571   3.3593   3.3593   3.3829   3.4243   3.4777
     3.4777   3.5578   3.5578   3.5845   3.6204   3.6748   3.6983   3.6983
     3.6989   3.7545   3.7545   3.7740   3.8009   3.8009   4.2669   4.2669
     4.4568   4.4568   4.4914   4.4914

     occupation numbers 
     1.0000   1.0000   1.0000   1.0000   1.0000   1.0000   1.0000   1.0000
     1.0000   1.0000   1.0000   1.0000   1.0000   1.0000   1.0000   1.0000
     1.0000   1.0000   1.0000   1.0000   1.0000   1.0000   1.0000   1.0000
     1.0000   1.0000   1.0000   1.0000   1.0000   1.0000   1.0000   1.0000
     1.0000   1.0000   1.0000   1.0000   1.0000   1.0000   1.0000   1.0000
     1.0000   1.0000   1.0000   1.0000   1.0000   1.0000   1.0000   1.0000
     1.0000   1.0000   1.0000   1.0000   1.0000   1.0000   1.0000   1.0000
     1.0000   1.0000   1.0000   1.0000   1.0000   1.0000   1.0000   1.0000
     1.0000   1.0000   1.0000   1.0000   1.0000   1.0000   1.0000   1.0000
     1.0000   1.0000   1.0000   1.0000   1.0000   1.0000   1.0000   1.0000
     1.0000   1.0000   1.0000   1.0000   1.0000   1.0000   1.0000   1.0000
     1.0000   1.0000   1.0000   1.0000   1.0000   1.0000   1.0000   1.0000
     1.0000   1.0000   1.0000   1.0000   1.0000   1.0000   1.0000   1.0000
     1.0000   1.0000   1.0000   1.0000   1.0000   1.0000   1.0000   1.0000
     1.0000   1.0000   1.0000   1.0000   1.0000   1.0000   1.0000   1.0000
     1.0000   1.0000   1.0000   1.0000   1.0000   1.0000   1.0000   1.0000
     1.0000   1.0000   1.0000   1.0000   1.0000   1.0000   1.0000   1.0000
     1.0000   1.0000   1.0000   1.0000   1.0000   1.0000   1.0000   1.0000
     1.0000   1.0000   1.0000   1.0000   1.0000   1.0000   1.0000   1.0000
     1.0000   1.0000   1.0000   1.0000   1.0000   1.0000   1.0000   1.0000
     1.0000   1.0000   1.0000   1.0000   1.0000   1.0000   1.0000   1.0000
     1.0000   1.0000   1.0000   1.0000   1.0000   1.0000   1.0000   1.0000
     1.0000   1.0000   1.0000   1.0000   1.0000   1.0000   1.0000   1.0000
     1.0000   1.0000   1.0000   1.0000   1.0000   1.0000   1.0000   1.0000
     1.0000   1.0000   1.0000   1.0000   1.0000   1.0000   1.0000   1.0000
     1.0000   1.0000   1.0000   1.0000   1.0000   1.0000   1.0000   1.0000
     0.0000   0.0000   0.0000   0.0000   0.0000   0.0000   0.0000   0.0000
     0.0000   0.0000   0.0000   0.0000   0.0000   0.0000   0.0000   0.0000
     0.0000   0.0000   0.0000   0.0000   0.0000   0.0000   0.0000   0.0000
     0.0000   0.0000   0.0000   0.0000   0.0000   0.0000   0.0000   0.0000
     0.0000   0.0000   0.0000   0.0000   0.0000   0.0000   0.0000   0.0000
     0.0000   0.0000   0.0000   0.0000   0.0000   0.0000   0.0000   0.0000
     0.0000   0.0000   0.0000   0.0000

          k = 0.0833 0.1925 0.0000 (126303 PWs)   bands (ev):

   -60.2538 -60.2411 -60.2404 -60.2366 -60.2355 -60.2323 -60.2318 -60.2219
   -60.2203 -60.2197 -60.2190 -60.2188 -60.2182 -60.2174 -60.2169 -60.2160
   -34.5432 -34.5407 -34.5399 -34.4885 -34.4875 -34.4821 -34.4814 -34.4779
   -34.4663 -34.4150 -34.4096 -34.3801 -34.3763 -34.3666 -34.3648 -34.3545
   -34.3532 -34.3492 -34.3455 -34.3431 -34.3421 -34.3367 -34.3357 -34.3285
   -34.3221 -34.3205 -34.3165 -34.3157 -34.3127 -34.3113 -34.3099 -34.3096
   -34.3096 -34.3083 -34.3067 -34.3057 -34.3038 -34.2751 -34.2702 -34.2686
   -34.2389 -34.2385 -34.2327 -34.2298 -34.2191 -34.2171 -34.1929 -34.1871
   -13.3847 -12.8225 -12.7905 -12.6067 -12.5487 -12.3850 -12.3593 -12.0950
   -11.8658 -11.8528 -11.8099 -11.7783 -11.7549 -11.7170 -11.6897 -11.6796
   -11.6750 -11.6130 -11.6008 -11.5619 -11.5325 -11.5021 -11.4466 -11.4453
   -11.4083 -11.3913 -11.3907 -11.3861 -11.3696 -11.3281 -11.3139 -11.2862
    -5.0447  -5.0400  -5.0383  -4.8978  -4.4961  -4.4928  -4.4832  -4.4640
    -4.4350  -4.4321  -4.3898  -4.3883  -4.3791  -4.3694  -4.3609  -4.3374
    -4.3303  -4.3044  -4.3029  -4.1284  -4.1093  -4.0760  -4.0599  -4.0449
    -3.9016  -3.3823  -3.3754  -3.3736  -3.2227  -3.2176  -3.2097  -3.1727
    -3.1714  -3.1462  -3.0494  -3.0435  -3.0267  -3.0141  -3.0107  -2.9926
    -2.9849  -2.9790  -2.9323  -2.8516  -2.6329  -2.6127  -2.5983  -2.5908
    -2.5822  -2.5729  -2.5163  -2.5081  -2.5006  -2.4941  -2.4845  -2.4276
    -2.3042  -2.2012  -2.0561  -2.0528  -2.0428  -2.0008  -1.9531  -1.9460
    -1.9408  -1.9142  -1.8829  -1.7110  -1.6540  -1.3730  -1.3473  -1.3253
    -1.2063  -1.1896  -1.1882  -1.1818  -1.1806  -1.1605  -1.1082  -1.0700
    -0.9919  -0.9530  -0.9232  -0.9077  -0.8606  -0.7981  -0.7605  -0.7523
    -0.6854  -0.5878  -0.5770  -0.5492  -0.4998  -0.4967  -0.4621  -0.4187
    -0.2288  -0.2087  -0.0855  -0.0372  -0.0371   0.0004   0.0268   0.0337
     0.0608   0.1180   0.1344   0.1663   0.2059   0.2446   0.3279   0.6572
     2.6236   2.7221   2.7595   2.7609   2.7642   2.8102   2.8104   2.8223
     2.8375   2.8380   2.8431   2.8439   2.8544   2.8595   2.8723   2.9392
     2.9624   3.0208   3.0349   3.0992   3.1160   3.2202   3.2796   3.3151
     3.3216   3.3222   3.3365   3.3400   3.3476   3.3881   3.4249   3.4449
     3.4803   3.5522   3.5522   3.6072   3.6198   3.6510   3.7112   3.7490
     3.7609   3.7642   3.7749   3.7831   3.8170   3.8273   4.2134   4.2570
     4.4588   4.4773   4.4915   4.5060

     occupation numbers 
     1.0000   1.0000   1.0000   1.0000   1.0000   1.0000   1.0000   1.0000
     1.0000   1.0000   1.0000   1.0000   1.0000   1.0000   1.0000   1.0000
     1.0000   1.0000   1.0000   1.0000   1.0000   1.0000   1.0000   1.0000
     1.0000   1.0000   1.0000   1.0000   1.0000   1.0000   1.0000   1.0000
     1.0000   1.0000   1.0000   1.0000   1.0000   1.0000   1.0000   1.0000
     1.0000   1.0000   1.0000   1.0000   1.0000   1.0000   1.0000   1.0000
     1.0000   1.0000   1.0000   1.0000   1.0000   1.0000   1.0000   1.0000
     1.0000   1.0000   1.0000   1.0000   1.0000   1.0000   1.0000   1.0000
     1.0000   1.0000   1.0000   1.0000   1.0000   1.0000   1.0000   1.0000
     1.0000   1.0000   1.0000   1.0000   1.0000   1.0000   1.0000   1.0000
     1.0000   1.0000   1.0000   1.0000   1.0000   1.0000   1.0000   1.0000
     1.0000   1.0000   1.0000   1.0000   1.0000   1.0000   1.0000   1.0000
     1.0000   1.0000   1.0000   1.0000   1.0000   1.0000   1.0000   1.0000
     1.0000   1.0000   1.0000   1.0000   1.0000   1.0000   1.0000   1.0000
     1.0000   1.0000   1.0000   1.0000   1.0000   1.0000   1.0000   1.0000
     1.0000   1.0000   1.0000   1.0000   1.0000   1.0000   1.0000   1.0000
     1.0000   1.0000   1.0000   1.0000   1.0000   1.0000   1.0000   1.0000
     1.0000   1.0000   1.0000   1.0000   1.0000   1.0000   1.0000   1.0000
     1.0000   1.0000   1.0000   1.0000   1.0000   1.0000   1.0000   1.0000
     1.0000   1.0000   1.0000   1.0000   1.0000   1.0000   1.0000   1.0000
     1.0000   1.0000   1.0000   1.0000   1.0000   1.0000   1.0000   1.0000
     1.0000   1.0000   1.0000   1.0000   1.0000   1.0000   1.0000   1.0000
     1.0000   1.0000   1.0000   1.0000   1.0000   1.0000   1.0000   1.0000
     1.0000   1.0000   1.0000   1.0000   1.0000   1.0000   1.0000   1.0000
     1.0000   1.0000   1.0000   1.0000   1.0000   1.0000   1.0000   1.0000
     1.0000   1.0000   1.0000   1.0000   1.0000   1.0000   1.0000   1.0000
     0.0000   0.0000   0.0000   0.0000   0.0000   0.0000   0.0000   0.0000
     0.0000   0.0000   0.0000   0.0000   0.0000   0.0000   0.0000   0.0000
     0.0000   0.0000   0.0000   0.0000   0.0000   0.0000   0.0000   0.0000
     0.0000   0.0000   0.0000   0.0000   0.0000   0.0000   0.0000   0.0000
     0.0000   0.0000   0.0000   0.0000   0.0000   0.0000   0.0000   0.0000
     0.0000   0.0000   0.0000   0.0000   0.0000   0.0000   0.0000   0.0000
     0.0000   0.0000   0.0000   0.0000

          k = 0.0833 0.2406 0.0000 (126309 PWs)   bands (ev):

   -60.2535 -60.2423 -60.2409 -60.2370 -60.2347 -60.2316 -60.2307 -60.2227
   -60.2210 -60.2196 -60.2194 -60.2189 -60.2181 -60.2174 -60.2165 -60.2156
   -34.5416 -34.5385 -34.5365 -34.4918 -34.4889 -34.4852 -34.4806 -34.4759
   -34.4623 -34.4262 -34.4154 -34.3828 -34.3794 -34.3719 -34.3602 -34.3568
   -34.3540 -34.3529 -34.3462 -34.3416 -34.3384 -34.3353 -34.3334 -34.3238
   -34.3176 -34.3173 -34.3141 -34.3112 -34.3108 -34.3106 -34.3100 -34.3097
   -34.3082 -34.3067 -34.3048 -34.3039 -34.3031 -34.2777 -34.2715 -34.2678
   -34.2416 -34.2411 -34.2358 -34.2299 -34.2187 -34.2145 -34.1964 -34.1879
   -13.3704 -12.8751 -12.8103 -12.6249 -12.5094 -12.3490 -12.2993 -12.0891
   -11.8872 -11.8608 -11.8564 -11.7854 -11.7584 -11.7388 -11.6751 -11.6728
   -11.6558 -11.6354 -11.6064 -11.5582 -11.5329 -11.4750 -11.4664 -11.4265
   -11.4217 -11.3997 -11.3909 -11.3874 -11.3668 -11.3295 -11.3021 -11.2753
    -5.0255  -5.0200  -5.0161  -4.8814  -4.5317  -4.5230  -4.4951  -4.4893
    -4.4315  -4.4269  -4.4248  -4.4243  -4.4104  -4.3811  -4.3685  -4.3300
    -4.3023  -4.3005  -4.2984  -4.1407  -4.1076  -4.0751  -4.0368  -3.9778
    -3.8266  -3.3755  -3.3667  -3.3629  -3.2848  -3.2272  -3.2180  -3.2099
    -3.1831  -3.1335  -3.0848  -3.0753  -3.0575  -3.0308  -3.0215  -3.0016
    -2.9891  -2.9711  -2.9198  -2.8092  -2.6393  -2.6378  -2.6052  -2.5761
    -2.5713  -2.5167  -2.5080  -2.4993  -2.4916  -2.4833  -2.4610  -2.3996
    -2.3250  -2.1146  -2.1105  -2.0959  -2.0751  -2.0742  -1.9813  -1.9259
    -1.8707  -1.8195  -1.8080  -1.7231  -1.5997  -1.4241  -1.3937  -1.3723
    -1.2366  -1.2298  -1.1861  -1.1743  -1.1717  -1.1529  -1.1498  -1.0767
    -0.9887  -0.9472  -0.9225  -0.9036  -0.8355  -0.8287  -0.7563  -0.7136
    -0.6581  -0.6373  -0.5764  -0.5297  -0.4999  -0.4706  -0.4577  -0.4329
    -0.2564  -0.2184  -0.1090  -0.0617  -0.0239  -0.0167  -0.0015   0.0486
     0.0651   0.1397   0.1570   0.2077   0.2217   0.2842   0.3695   0.6498
     2.5800   2.6884   2.7352   2.7479   2.7689   2.7847   2.7862   2.8199
     2.8358   2.8397   2.8475   2.8504   2.8562   2.8620   2.8750   2.9426
     2.9829   3.0281   3.0504   3.1129   3.1495   3.2013   3.2444   3.2762
     3.2820   3.3158   3.3197   3.3204   3.3417   3.3722   3.3941   3.4708
     3.4806   3.5126   3.5451   3.5906   3.6275   3.6795   3.7187   3.7433
     3.7753   3.8192   3.8237   3.8261   3.8312   3.8607   4.1587   4.2517
     4.4592   4.4633   4.4893   4.5572

     occupation numbers 
     1.0000   1.0000   1.0000   1.0000   1.0000   1.0000   1.0000   1.0000
     1.0000   1.0000   1.0000   1.0000   1.0000   1.0000   1.0000   1.0000
     1.0000   1.0000   1.0000   1.0000   1.0000   1.0000   1.0000   1.0000
     1.0000   1.0000   1.0000   1.0000   1.0000   1.0000   1.0000   1.0000
     1.0000   1.0000   1.0000   1.0000   1.0000   1.0000   1.0000   1.0000
     1.0000   1.0000   1.0000   1.0000   1.0000   1.0000   1.0000   1.0000
     1.0000   1.0000   1.0000   1.0000   1.0000   1.0000   1.0000   1.0000
     1.0000   1.0000   1.0000   1.0000   1.0000   1.0000   1.0000   1.0000
     1.0000   1.0000   1.0000   1.0000   1.0000   1.0000   1.0000   1.0000
     1.0000   1.0000   1.0000   1.0000   1.0000   1.0000   1.0000   1.0000
     1.0000   1.0000   1.0000   1.0000   1.0000   1.0000   1.0000   1.0000
     1.0000   1.0000   1.0000   1.0000   1.0000   1.0000   1.0000   1.0000
     1.0000   1.0000   1.0000   1.0000   1.0000   1.0000   1.0000   1.0000
     1.0000   1.0000   1.0000   1.0000   1.0000   1.0000   1.0000   1.0000
     1.0000   1.0000   1.0000   1.0000   1.0000   1.0000   1.0000   1.0000
     1.0000   1.0000   1.0000   1.0000   1.0000   1.0000   1.0000   1.0000
     1.0000   1.0000   1.0000   1.0000   1.0000   1.0000   1.0000   1.0000
     1.0000   1.0000   1.0000   1.0000   1.0000   1.0000   1.0000   1.0000
     1.0000   1.0000   1.0000   1.0000   1.0000   1.0000   1.0000   1.0000
     1.0000   1.0000   1.0000   1.0000   1.0000   1.0000   1.0000   1.0000
     1.0000   1.0000   1.0000   1.0000   1.0000   1.0000   1.0000   1.0000
     1.0000   1.0000   1.0000   1.0000   1.0000   1.0000   1.0000   1.0000
     1.0000   1.0000   1.0000   1.0000   1.0000   1.0000   1.0000   1.0000
     1.0000   1.0000   1.0000   1.0000   1.0000   1.0000   1.0000   1.0000
     1.0000   1.0000   1.0000   1.0000   1.0000   1.0000   1.0000   1.0000
     1.0000   1.0000   1.0000   1.0000   1.0000   1.0000   1.0000   1.0000
     0.0000   0.0000   0.0000   0.0000   0.0000   0.0000   0.0000   0.0000
     0.0000   0.0000   0.0000   0.0000   0.0000   0.0000   0.0000   0.0000
     0.0000   0.0000   0.0000   0.0000   0.0000   0.0000   0.0000   0.0000
     0.0000   0.0000   0.0000   0.0000   0.0000   0.0000   0.0000   0.0000
     0.0000   0.0000   0.0000   0.0000   0.0000   0.0000   0.0000   0.0000
     0.0000   0.0000   0.0000   0.0000   0.0000   0.0000   0.0000   0.0000
     0.0000   0.0000   0.0000   0.0000

          k = 0.0833 0.2887 0.0000 (126324 PWs)   bands (ev):

   -60.2531 -60.2434 -60.2412 -60.2373 -60.2339 -60.2309 -60.2296 -60.2235
   -60.2217 -60.2198 -60.2196 -60.2190 -60.2181 -60.2174 -60.2161 -60.2153
   -34.5397 -34.5360 -34.5325 -34.4956 -34.4901 -34.4888 -34.4797 -34.4736
   -34.4581 -34.4371 -34.4212 -34.3894 -34.3786 -34.3768 -34.3590 -34.3562
   -34.3561 -34.3547 -34.3469 -34.3399 -34.3343 -34.3339 -34.3312 -34.3195
   -34.3190 -34.3155 -34.3142 -34.3115 -34.3112 -34.3099 -34.3080 -34.3068
   -34.3041 -34.3036 -34.3025 -34.2997 -34.2982 -34.2807 -34.2733 -34.2669
   -34.2442 -34.2440 -34.2392 -34.2301 -34.2184 -34.2119 -34.2006 -34.1889
   -13.3531 -12.9261 -12.8276 -12.6408 -12.4684 -12.3115 -12.2397 -12.0820
   -11.9079 -11.9037 -11.8677 -11.8007 -11.7917 -11.7220 -11.6700 -11.6625
   -11.6599 -11.6323 -11.6121 -11.5547 -11.5335 -11.4865 -11.4511 -11.4450
   -11.4098 -11.4008 -11.3910 -11.3884 -11.3640 -11.3312 -11.2916 -11.2657
    -5.0022  -4.9963  -4.9894  -4.8615  -4.5658  -4.5544  -4.5309  -4.4926
    -4.4680  -4.4662  -4.4455  -4.4172  -4.4157  -4.3934  -4.3754  -4.3211
    -4.3022  -4.2945  -4.2699  -4.1539  -4.1056  -4.0751  -4.0088  -3.9100
    -3.7503  -3.3669  -3.3582  -3.3562  -3.3505  -3.2490  -3.2301  -3.2160
    -3.1898  -3.1215  -3.1192  -3.1084  -3.0892  -3.0593  -3.0486  -3.0209
    -3.0108  -2.9692  -2.8565  -2.7671  -2.6714  -2.6413  -2.6072  -2.5690
    -2.5307  -2.5166  -2.5079  -2.4989  -2.4702  -2.4383  -2.4102  -2.3722
    -2.3403  -2.1689  -2.1494  -2.1372  -2.1137  -2.0199  -2.0138  -1.9077
    -1.7863  -1.7421  -1.7324  -1.7265  -1.5449  -1.4740  -1.4654  -1.3952
    -1.2691  -1.2645  -1.1884  -1.1818  -1.1648  -1.1609  -1.1524  -1.0845
    -0.9954  -0.9758  -0.9398  -0.8717  -0.8559  -0.8002  -0.7489  -0.7464
    -0.6779  -0.6072  -0.5912  -0.5647  -0.4517  -0.4502  -0.4455  -0.4175
    -0.2763  -0.2226  -0.1292  -0.0837  -0.0518  -0.0277   0.0018   0.0624
     0.0699   0.1583   0.1771   0.2096   0.2753   0.3220   0.4093   0.6404
     2.5375   2.6549   2.7105   2.7333   2.7555   2.7626   2.7783   2.8176
     2.8202   2.8375   2.8459   2.8517   2.8649   2.8765   2.8805   2.9549
     3.0045   3.0383   3.0635   3.1247   3.1842   3.1872   3.2174   3.2423
     3.2431   3.2918   3.2970   3.3185   3.3217   3.3359   3.4010   3.4669
     3.4799   3.5018   3.5367   3.5707   3.6044   3.7220   3.7354   3.7375
     3.7754   3.8436   3.8620   3.8833   3.8859   3.9006   4.1031   4.2499
     4.4369   4.4691   4.4814   4.5656

     occupation numbers 
     1.0000   1.0000   1.0000   1.0000   1.0000   1.0000   1.0000   1.0000
     1.0000   1.0000   1.0000   1.0000   1.0000   1.0000   1.0000   1.0000
     1.0000   1.0000   1.0000   1.0000   1.0000   1.0000   1.0000   1.0000
     1.0000   1.0000   1.0000   1.0000   1.0000   1.0000   1.0000   1.0000
     1.0000   1.0000   1.0000   1.0000   1.0000   1.0000   1.0000   1.0000
     1.0000   1.0000   1.0000   1.0000   1.0000   1.0000   1.0000   1.0000
     1.0000   1.0000   1.0000   1.0000   1.0000   1.0000   1.0000   1.0000
     1.0000   1.0000   1.0000   1.0000   1.0000   1.0000   1.0000   1.0000
     1.0000   1.0000   1.0000   1.0000   1.0000   1.0000   1.0000   1.0000
     1.0000   1.0000   1.0000   1.0000   1.0000   1.0000   1.0000   1.0000
     1.0000   1.0000   1.0000   1.0000   1.0000   1.0000   1.0000   1.0000
     1.0000   1.0000   1.0000   1.0000   1.0000   1.0000   1.0000   1.0000
     1.0000   1.0000   1.0000   1.0000   1.0000   1.0000   1.0000   1.0000
     1.0000   1.0000   1.0000   1.0000   1.0000   1.0000   1.0000   1.0000
     1.0000   1.0000   1.0000   1.0000   1.0000   1.0000   1.0000   1.0000
     1.0000   1.0000   1.0000   1.0000   1.0000   1.0000   1.0000   1.0000
     1.0000   1.0000   1.0000   1.0000   1.0000   1.0000   1.0000   1.0000
     1.0000   1.0000   1.0000   1.0000   1.0000   1.0000   1.0000   1.0000
     1.0000   1.0000   1.0000   1.0000   1.0000   1.0000   1.0000   1.0000
     1.0000   1.0000   1.0000   1.0000   1.0000   1.0000   1.0000   1.0000
     1.0000   1.0000   1.0000   1.0000   1.0000   1.0000   1.0000   1.0000
     1.0000   1.0000   1.0000   1.0000   1.0000   1.0000   1.0000   1.0000
     1.0000   1.0000   1.0000   1.0000   1.0000   1.0000   1.0000   1.0000
     1.0000   1.0000   1.0000   1.0000   1.0000   1.0000   1.0000   1.0000
     1.0000   1.0000   1.0000   1.0000   1.0000   1.0000   1.0000   1.0000
     1.0000   1.0000   1.0000   1.0000   1.0000   1.0000   1.0000   1.0000
     0.0000   0.0000   0.0000   0.0000   0.0000   0.0000   0.0000   0.0000
     0.0000   0.0000   0.0000   0.0000   0.0000   0.0000   0.0000   0.0000
     0.0000   0.0000   0.0000   0.0000   0.0000   0.0000   0.0000   0.0000
     0.0000   0.0000   0.0000   0.0000   0.0000   0.0000   0.0000   0.0000
     0.0000   0.0000   0.0000   0.0000   0.0000   0.0000   0.0000   0.0000
     0.0000   0.0000   0.0000   0.0000   0.0000   0.0000   0.0000   0.0000
     0.0000   0.0000   0.0000   0.0000

          k = 0.0833 0.3368 0.0000 (126340 PWs)   bands (ev):

   -60.2526 -60.2444 -60.2415 -60.2376 -60.2330 -60.2301 -60.2285 -60.2243
   -60.2225 -60.2203 -60.2196 -60.2190 -60.2180 -60.2174 -60.2158 -60.2150
   -34.5373 -34.5331 -34.5278 -34.4996 -34.4927 -34.4911 -34.4787 -34.4709
   -34.4535 -34.4477 -34.4268 -34.3959 -34.3811 -34.3776 -34.3612 -34.3590
   -34.3554 -34.3524 -34.3474 -34.3383 -34.3324 -34.3298 -34.3290 -34.3206
   -34.3170 -34.3158 -34.3125 -34.3111 -34.3106 -34.3100 -34.3079 -34.3068
   -34.3035 -34.3019 -34.2973 -34.2926 -34.2888 -34.2840 -34.2754 -34.2657
   -34.2473 -34.2467 -34.2429 -34.2304 -34.2183 -34.2093 -34.2056 -34.1900
   -13.3326 -12.9750 -12.8422 -12.6543 -12.4258 -12.2727 -12.1808 -12.0737
   -11.9518 -11.9278 -11.8736 -11.8438 -11.7970 -11.7046 -11.6939 -11.6668
   -11.6440 -11.6179 -11.6090 -11.5516 -11.5341 -11.5069 -11.4636 -11.4306
   -11.4215 -11.3912 -11.3893 -11.3830 -11.3610 -11.3332 -11.2827 -11.2575
    -4.9749  -4.9689  -4.9585  -4.8384  -4.5950  -4.5895  -4.5705  -4.5112
    -4.4992  -4.4933  -4.4832  -4.4071  -4.4063  -4.4060  -4.3815  -4.3108
    -4.3043  -4.2913  -4.2396  -4.1680  -4.1033  -4.0760  -3.9761  -3.8422
    -3.6734  -3.4296  -3.3567  -3.3439  -3.3368  -3.2894  -3.2325  -3.2115
    -3.1924  -3.1518  -3.1406  -3.1206  -3.1104  -3.1026  -3.0670  -3.0522
    -3.0421  -2.9513  -2.7904  -2.7260  -2.6936  -2.6384  -2.6039  -2.5613
    -2.5162  -2.5080  -2.4996  -2.4918  -2.4548  -2.4171  -2.3513  -2.3463
    -2.3290  -2.2290  -2.2240  -2.1766  -2.1582  -2.0487  -1.9192  -1.8865
    -1.7655  -1.6950  -1.6572  -1.6357  -1.5393  -1.5224  -1.4901  -1.4156
    -1.3052  -1.2892  -1.2231  -1.1766  -1.1599  -1.1534  -1.1480  -1.0931
    -1.0126  -1.0088  -0.9591  -0.9064  -0.8409  -0.8100  -0.7755  -0.7400
    -0.6924  -0.6456  -0.5540  -0.5482  -0.4705  -0.4249  -0.4068  -0.3786
    -0.2882  -0.2213  -0.1455  -0.1031  -0.0824  -0.0521   0.0180   0.0742
     0.0751   0.1739   0.1946   0.2114   0.3261   0.3568   0.4462   0.6286
     2.4978   2.6230   2.6872   2.7205   2.7256   2.7413   2.7888   2.7990
     2.8156   2.8333   2.8412   2.8560   2.8679   2.8762   2.9105   2.9739
     3.0263   3.0505   3.0744   3.1343   3.1759   3.1970   3.2046   3.2162
     3.2197   3.2653   3.2733   3.2751   3.3166   3.3303   3.4091   3.4163
     3.4792   3.5269   3.5375   3.5478   3.5824   3.7225   3.7319   3.7752
     3.7860   3.8541   3.9111   3.9346   3.9467   3.9470   4.0468   4.2504
     4.4107   4.4637   4.4754   4.5461

     occupation numbers 
     1.0000   1.0000   1.0000   1.0000   1.0000   1.0000   1.0000   1.0000
     1.0000   1.0000   1.0000   1.0000   1.0000   1.0000   1.0000   1.0000
     1.0000   1.0000   1.0000   1.0000   1.0000   1.0000   1.0000   1.0000
     1.0000   1.0000   1.0000   1.0000   1.0000   1.0000   1.0000   1.0000
     1.0000   1.0000   1.0000   1.0000   1.0000   1.0000   1.0000   1.0000
     1.0000   1.0000   1.0000   1.0000   1.0000   1.0000   1.0000   1.0000
     1.0000   1.0000   1.0000   1.0000   1.0000   1.0000   1.0000   1.0000
     1.0000   1.0000   1.0000   1.0000   1.0000   1.0000   1.0000   1.0000
     1.0000   1.0000   1.0000   1.0000   1.0000   1.0000   1.0000   1.0000
     1.0000   1.0000   1.0000   1.0000   1.0000   1.0000   1.0000   1.0000
     1.0000   1.0000   1.0000   1.0000   1.0000   1.0000   1.0000   1.0000
     1.0000   1.0000   1.0000   1.0000   1.0000   1.0000   1.0000   1.0000
     1.0000   1.0000   1.0000   1.0000   1.0000   1.0000   1.0000   1.0000
     1.0000   1.0000   1.0000   1.0000   1.0000   1.0000   1.0000   1.0000
     1.0000   1.0000   1.0000   1.0000   1.0000   1.0000   1.0000   1.0000
     1.0000   1.0000   1.0000   1.0000   1.0000   1.0000   1.0000   1.0000
     1.0000   1.0000   1.0000   1.0000   1.0000   1.0000   1.0000   1.0000
     1.0000   1.0000   1.0000   1.0000   1.0000   1.0000   1.0000   1.0000
     1.0000   1.0000   1.0000   1.0000   1.0000   1.0000   1.0000   1.0000
     1.0000   1.0000   1.0000   1.0000   1.0000   1.0000   1.0000   1.0000
     1.0000   1.0000   1.0000   1.0000   1.0000   1.0000   1.0000   1.0000
     1.0000   1.0000   1.0000   1.0000   1.0000   1.0000   1.0000   1.0000
     1.0000   1.0000   1.0000   1.0000   1.0000   1.0000   1.0000   1.0000
     1.0000   1.0000   1.0000   1.0000   1.0000   1.0000   1.0000   1.0000
     1.0000   1.0000   1.0000   1.0000   1.0000   1.0000   1.0000   1.0000
     1.0000   1.0000   1.0000   1.0000   1.0000   1.0000   1.0000   1.0000
     0.0000   0.0000   0.0000   0.0000   0.0000   0.0000   0.0000   0.0000
     0.0000   0.0000   0.0000   0.0000   0.0000   0.0000   0.0000   0.0000
     0.0000   0.0000   0.0000   0.0000   0.0000   0.0000   0.0000   0.0000
     0.0000   0.0000   0.0000   0.0000   0.0000   0.0000   0.0000   0.0000
     0.0000   0.0000   0.0000   0.0000   0.0000   0.0000   0.0000   0.0000
     0.0000   0.0000   0.0000   0.0000   0.0000   0.0000   0.0000   0.0000
     0.0000   0.0000   0.0000   0.0000

          k = 0.0833 0.3849 0.0000 (126339 PWs)   bands (ev):

   -60.2521 -60.2455 -60.2418 -60.2378 -60.2322 -60.2294 -60.2274 -60.2252
   -60.2232 -60.2208 -60.2195 -60.2191 -60.2179 -60.2175 -60.2155 -60.2148
   -34.5346 -34.5299 -34.5224 -34.5038 -34.4969 -34.4918 -34.4777 -34.4678
   -34.4579 -34.4487 -34.4323 -34.4024 -34.3849 -34.3765 -34.3633 -34.3614
   -34.3559 -34.3493 -34.3479 -34.3365 -34.3309 -34.3269 -34.3250 -34.3224
   -34.3185 -34.3136 -34.3126 -34.3110 -34.3101 -34.3077 -34.3069 -34.3067
   -34.3029 -34.3014 -34.2912 -34.2877 -34.2869 -34.2783 -34.2779 -34.2644
   -34.2510 -34.2491 -34.2469 -34.2307 -34.2183 -34.2113 -34.2069 -34.1913
   -13.3092 -13.0220 -12.8543 -12.6655 -12.3819 -12.2327 -12.1227 -12.0641
   -12.0004 -11.9469 -11.8874 -11.8784 -11.8014 -11.7294 -11.6865 -11.6632
   -11.6276 -11.6236 -11.5863 -11.5487 -11.5350 -11.5275 -11.4824 -11.4349
   -11.4136 -11.3913 -11.3900 -11.3682 -11.3580 -11.3354 -11.2752 -11.2506
    -4.9439  -4.9382  -4.9238  -4.8121  -4.6273  -4.6192  -4.6128  -4.5587
    -4.5249  -4.5226  -4.4916  -4.4186  -4.3987  -4.3945  -4.3867  -4.3086
    -4.2993  -4.2888  -4.2108  -4.1828  -4.1006  -4.0776  -3.9388  -3.7752
    -3.5967  -3.4987  -3.3448  -3.3315  -3.3299  -3.3222  -3.2357  -3.2045
    -3.1910  -3.1820  -3.1700  -3.1510  -3.1464  -3.1006  -3.0961  -3.0856
    -3.0642  -2.9360  -2.7224  -2.7077  -2.6870  -2.6300  -2.5947  -2.5531
    -2.5154  -2.5082  -2.5014  -2.4558  -2.4370  -2.3982  -2.3591  -2.3230
    -2.2962  -2.2888  -2.2480  -2.2140  -2.2080  -2.0839  -1.8621  -1.8140
    -1.7907  -1.6149  -1.5983  -1.5836  -1.5692  -1.5480  -1.4354  -1.4329
    -1.3371  -1.3102  -1.2533  -1.1760  -1.1708  -1.1398  -1.1331  -1.1023
    -1.0458  -1.0402  -0.9798  -0.9404  -0.9395  -0.7837  -0.7661  -0.7547
    -0.7308  -0.6171  -0.5454  -0.5094  -0.4937  -0.4096  -0.3671  -0.3434
    -0.2921  -0.2149  -0.1575  -0.1201  -0.1146  -0.0749   0.0315   0.0802
     0.0834   0.1865   0.2091   0.2129   0.3737   0.3876   0.4790   0.6143
     2.4623   2.5943   2.6666   2.6975   2.7097   2.7237   2.7754   2.8001
     2.8139   2.8290   2.8364   2.8604   2.8705   2.8741   2.9461   2.9973
     3.0477   3.0640   3.0831   3.1419   3.1657   3.1708   3.1806   3.1959
     3.2343   3.2367   3.2497   3.2557   3.3148   3.3252   3.3621   3.4184
     3.4793   3.5160   3.5222   3.5617   3.5773   3.7213   3.7268   3.7748
     3.8298   3.8627   3.9655   3.9786   3.9903   3.9984   4.0066   4.2521
     4.3804   4.4336   4.4815   4.5030

     occupation numbers 
     1.0000   1.0000   1.0000   1.0000   1.0000   1.0000   1.0000   1.0000
     1.0000   1.0000   1.0000   1.0000   1.0000   1.0000   1.0000   1.0000
     1.0000   1.0000   1.0000   1.0000   1.0000   1.0000   1.0000   1.0000
     1.0000   1.0000   1.0000   1.0000   1.0000   1.0000   1.0000   1.0000
     1.0000   1.0000   1.0000   1.0000   1.0000   1.0000   1.0000   1.0000
     1.0000   1.0000   1.0000   1.0000   1.0000   1.0000   1.0000   1.0000
     1.0000   1.0000   1.0000   1.0000   1.0000   1.0000   1.0000   1.0000
     1.0000   1.0000   1.0000   1.0000   1.0000   1.0000   1.0000   1.0000
     1.0000   1.0000   1.0000   1.0000   1.0000   1.0000   1.0000   1.0000
     1.0000   1.0000   1.0000   1.0000   1.0000   1.0000   1.0000   1.0000
     1.0000   1.0000   1.0000   1.0000   1.0000   1.0000   1.0000   1.0000
     1.0000   1.0000   1.0000   1.0000   1.0000   1.0000   1.0000   1.0000
     1.0000   1.0000   1.0000   1.0000   1.0000   1.0000   1.0000   1.0000
     1.0000   1.0000   1.0000   1.0000   1.0000   1.0000   1.0000   1.0000
     1.0000   1.0000   1.0000   1.0000   1.0000   1.0000   1.0000   1.0000
     1.0000   1.0000   1.0000   1.0000   1.0000   1.0000   1.0000   1.0000
     1.0000   1.0000   1.0000   1.0000   1.0000   1.0000   1.0000   1.0000
     1.0000   1.0000   1.0000   1.0000   1.0000   1.0000   1.0000   1.0000
     1.0000   1.0000   1.0000   1.0000   1.0000   1.0000   1.0000   1.0000
     1.0000   1.0000   1.0000   1.0000   1.0000   1.0000   1.0000   1.0000
     1.0000   1.0000   1.0000   1.0000   1.0000   1.0000   1.0000   1.0000
     1.0000   1.0000   1.0000   1.0000   1.0000   1.0000   1.0000   1.0000
     1.0000   1.0000   1.0000   1.0000   1.0000   1.0000   1.0000   1.0000
     1.0000   1.0000   1.0000   1.0000   1.0000   1.0000   1.0000   1.0000
     1.0000   1.0000   1.0000   1.0000   1.0000   1.0000   1.0000   1.0000
     1.0000   1.0000   1.0000   1.0000   1.0000   1.0000   1.0000   1.0000
     0.0000   0.0000   0.0000   0.0000   0.0000   0.0000   0.0000   0.0000
     0.0000   0.0000   0.0000   0.0000   0.0000   0.0000   0.0000   0.0000
     0.0000   0.0000   0.0000   0.0000   0.0000   0.0000   0.0000   0.0000
     0.0000   0.0000   0.0000   0.0000   0.0000   0.0000   0.0000   0.0000
     0.0000   0.0000   0.0000   0.0000   0.0000   0.0000   0.0000   0.0000
     0.0000   0.0000   0.0000   0.0000   0.0000   0.0000   0.0000   0.0000
     0.0000   0.0000   0.0000   0.0000

          k = 0.0833 0.4330 0.0000 (126371 PWs)   bands (ev):

   -60.2514 -60.2465 -60.2420 -60.2380 -60.2313 -60.2286 -60.2264 -60.2260
   -60.2240 -60.2214 -60.2195 -60.2192 -60.2178 -60.2175 -60.2153 -60.2146
   -34.5315 -34.5263 -34.5163 -34.5081 -34.5013 -34.4924 -34.4768 -34.4677
   -34.4644 -34.4437 -34.4377 -34.4088 -34.3880 -34.3752 -34.3653 -34.3632
   -34.3563 -34.3483 -34.3468 -34.3348 -34.3294 -34.3249 -34.3241 -34.3201
   -34.3200 -34.3149 -34.3110 -34.3103 -34.3101 -34.3076 -34.3070 -34.3028
   -34.3025 -34.3011 -34.2917 -34.2853 -34.2814 -34.2808 -34.2682 -34.2630
   -34.2550 -34.2514 -34.2512 -34.2311 -34.2183 -34.2177 -34.2045 -34.1928
   -13.2828 -13.0667 -12.8637 -12.6741 -12.3368 -12.1916 -12.0659 -12.0533
   -12.0493 -11.9652 -11.9314 -11.8822 -11.8048 -11.7686 -11.6678 -11.6592
   -11.6292 -11.6106 -11.5641 -11.5480 -11.5461 -11.5359 -11.5013 -11.4497
   -11.4002 -11.3914 -11.3905 -11.3566 -11.3549 -11.3378 -11.2694 -11.2452
    -4.9095  -4.9046  -4.8855  -4.7829  -4.6671  -4.6567  -4.6381  -4.6076
    -4.5627  -4.5450  -4.4877  -4.4310  -4.3914  -4.3908  -4.3819  -4.3149
    -4.2868  -4.2868  -4.1979  -4.1854  -4.0978  -4.0798  -3.8970  -3.7095
    -3.5652  -3.5212  -3.3760  -3.3311  -3.3140  -3.3074  -3.2404  -3.2098
    -3.1953  -3.1948  -3.1863  -3.1855  -3.1798  -3.1433  -3.1042  -3.0927
    -3.0866  -2.9237  -2.7164  -2.6534  -2.6519  -2.6153  -2.5792  -2.5446
    -2.5143  -2.5086  -2.5045  -2.4241  -2.4169  -2.3824  -2.3643  -2.3640
    -2.3464  -2.3032  -2.2626  -2.2495  -2.1673  -2.1168  -1.8348  -1.8149
    -1.7056  -1.6917  -1.6141  -1.5127  -1.4979  -1.4641  -1.4468  -1.3813
    -1.3635  -1.3271  -1.2778  -1.2010  -1.1641  -1.1243  -1.1161  -1.1118
    -1.0863  -1.0776  -1.0442  -1.0015  -0.9707  -0.8798  -0.7382  -0.7244
    -0.7228  -0.5927  -0.5397  -0.5197  -0.4756  -0.4000  -0.3343  -0.3137
    -0.2881  -0.2042  -0.1651  -0.1472  -0.1347  -0.0966   0.0422   0.0851
     0.0899   0.1963   0.2141   0.2206   0.4131   0.4175   0.5062   0.5970
     2.4327   2.5703   2.6501   2.6731   2.7012   2.7107   2.7523   2.8118
     2.8126   2.8254   2.8320   2.8645   2.8698   2.8726   2.9869   3.0237
     3.0683   3.0781   3.0898   3.1426   3.1476   3.1555   3.1663   3.1823
     3.2008   3.2067   3.2275   3.2918   3.3057   3.3134   3.3208   3.4290
     3.4811   3.4941   3.5042   3.5429   3.6209   3.7194   3.7225   3.7744
     3.8654   3.8694   3.9339   4.0142   4.0243   4.0550   4.0641   4.2543
     4.3461   4.3909   4.4455   4.4868

     occupation numbers 
     1.0000   1.0000   1.0000   1.0000   1.0000   1.0000   1.0000   1.0000
     1.0000   1.0000   1.0000   1.0000   1.0000   1.0000   1.0000   1.0000
     1.0000   1.0000   1.0000   1.0000   1.0000   1.0000   1.0000   1.0000
     1.0000   1.0000   1.0000   1.0000   1.0000   1.0000   1.0000   1.0000
     1.0000   1.0000   1.0000   1.0000   1.0000   1.0000   1.0000   1.0000
     1.0000   1.0000   1.0000   1.0000   1.0000   1.0000   1.0000   1.0000
     1.0000   1.0000   1.0000   1.0000   1.0000   1.0000   1.0000   1.0000
     1.0000   1.0000   1.0000   1.0000   1.0000   1.0000   1.0000   1.0000
     1.0000   1.0000   1.0000   1.0000   1.0000   1.0000   1.0000   1.0000
     1.0000   1.0000   1.0000   1.0000   1.0000   1.0000   1.0000   1.0000
     1.0000   1.0000   1.0000   1.0000   1.0000   1.0000   1.0000   1.0000
     1.0000   1.0000   1.0000   1.0000   1.0000   1.0000   1.0000   1.0000
     1.0000   1.0000   1.0000   1.0000   1.0000   1.0000   1.0000   1.0000
     1.0000   1.0000   1.0000   1.0000   1.0000   1.0000   1.0000   1.0000
     1.0000   1.0000   1.0000   1.0000   1.0000   1.0000   1.0000   1.0000
     1.0000   1.0000   1.0000   1.0000   1.0000   1.0000   1.0000   1.0000
     1.0000   1.0000   1.0000   1.0000   1.0000   1.0000   1.0000   1.0000
     1.0000   1.0000   1.0000   1.0000   1.0000   1.0000   1.0000   1.0000
     1.0000   1.0000   1.0000   1.0000   1.0000   1.0000   1.0000   1.0000
     1.0000   1.0000   1.0000   1.0000   1.0000   1.0000   1.0000   1.0000
     1.0000   1.0000   1.0000   1.0000   1.0000   1.0000   1.0000   1.0000
     1.0000   1.0000   1.0000   1.0000   1.0000   1.0000   1.0000   1.0000
     1.0000   1.0000   1.0000   1.0000   1.0000   1.0000   1.0000   1.0000
     1.0000   1.0000   1.0000   1.0000   1.0000   1.0000   1.0000   1.0000
     1.0000   1.0000   1.0000   1.0000   1.0000   1.0000   1.0000   1.0000
     1.0000   1.0000   1.0000   1.0000   1.0000   1.0000   1.0000   1.0000
     0.0000   0.0000   0.0000   0.0000   0.0000   0.0000   0.0000   0.0000
     0.0000   0.0000   0.0000   0.0000   0.0000   0.0000   0.0000   0.0000
     0.0000   0.0000   0.0000   0.0000   0.0000   0.0000   0.0000   0.0000
     0.0000   0.0000   0.0000   0.0000   0.0000   0.0000   0.0000   0.0000
     0.0000   0.0000   0.0000   0.0000   0.0000   0.0000   0.0000   0.0000
     0.0000   0.0000   0.0000   0.0000   0.0000   0.0000   0.0000   0.0000
     0.0000   0.0000   0.0000   0.0000

          k = 0.0833 0.4811 0.0000 (126380 PWs)   bands (ev):

   -60.2507 -60.2474 -60.2421 -60.2381 -60.2305 -60.2279 -60.2269 -60.2255
   -60.2248 -60.2221 -60.2195 -60.2192 -60.2178 -60.2176 -60.2152 -60.2145
   -34.5282 -34.5226 -34.5123 -34.5096 -34.5057 -34.4928 -34.4771 -34.4761
   -34.4607 -34.4428 -34.4384 -34.4150 -34.3902 -34.3739 -34.3672 -34.3646
   -34.3566 -34.3485 -34.3449 -34.3330 -34.3278 -34.3259 -34.3230 -34.3216
   -34.3162 -34.3151 -34.3109 -34.3104 -34.3082 -34.3075 -34.3071 -34.3022
   -34.3008 -34.2988 -34.2960 -34.2839 -34.2796 -34.2759 -34.2614 -34.2593
   -34.2585 -34.2557 -34.2537 -34.2314 -34.2247 -34.2184 -34.2023 -34.1944
   -13.2535 -13.1091 -12.8705 -12.6803 -12.2905 -12.1496 -12.0983 -12.0414
   -12.0107 -11.9825 -11.9755 -11.8849 -11.8114 -11.8072 -11.6549 -11.6487
   -11.6347 -11.5932 -11.5686 -11.5438 -11.5426 -11.5371 -11.5201 -11.4660
   -11.3915 -11.3910 -11.3906 -11.3519 -11.3483 -11.3403 -11.2652 -11.2413
    -4.8721  -4.8684  -4.8442  -4.7510  -4.7080  -4.7014  -4.6569  -4.6516
    -4.6027  -4.5594  -4.4817  -4.4431  -4.3938  -4.3857  -4.3691  -4.3232
    -4.2854  -4.2732  -4.2134  -4.1652  -4.0947  -4.0824  -3.8510  -3.6461
    -3.6290  -3.4479  -3.4233  -3.3158  -3.2964  -3.2928  -3.2470  -3.2353
    -3.2180  -3.2136  -3.2069  -3.1947  -3.1840  -3.1762  -3.1223  -3.1083
    -3.0868  -2.9146  -2.7214  -2.6231  -2.5935  -2.5842  -2.5570  -2.5363
    -2.5132  -2.5092  -2.5089  -2.4257  -2.4002  -2.3990  -2.3945  -2.3705
    -2.3676  -2.3213  -2.2881  -2.2828  -2.1444  -2.0868  -1.8353  -1.8046
    -1.7694  -1.6570  -1.5952  -1.4570  -1.4455  -1.3949  -1.3845  -1.3834
    -1.3394  -1.3279  -1.2961  -1.2348  -1.1567  -1.1513  -1.1300  -1.1243
    -1.1214  -1.1068  -1.0971  -1.0237  -1.0000  -0.9795  -0.7258  -0.7167
    -0.6849  -0.5726  -0.5482  -0.5376  -0.4473  -0.3965  -0.3098  -0.2914
    -0.2769  -0.1903  -0.1792  -0.1685  -0.1470  -0.1172   0.0500   0.0894
     0.0938   0.2036   0.2145   0.2288   0.4322   0.4574   0.5267   0.5766
     2.4104   2.5521   2.6386   2.6539   2.6950   2.7030   2.7320   2.8117
     2.8232   2.8236   2.8281   2.8636   2.8681   2.8738   3.0326   3.0523
     3.0878   3.0925   3.0944   3.1214   3.1446   3.1515   3.1525   3.1754
     3.1758   3.1759   3.2079   3.2483   3.3125   3.3173   3.3278   3.4405
     3.4638   3.4850   3.4918   3.5262   3.6678   3.7175   3.7192   3.7741
     3.8741   3.8780   3.8917   4.0404   4.0865   4.1158   4.1191   4.2563
     4.3079   4.3382   4.3812   4.4909

     occupation numbers 
     1.0000   1.0000   1.0000   1.0000   1.0000   1.0000   1.0000   1.0000
     1.0000   1.0000   1.0000   1.0000   1.0000   1.0000   1.0000   1.0000
     1.0000   1.0000   1.0000   1.0000   1.0000   1.0000   1.0000   1.0000
     1.0000   1.0000   1.0000   1.0000   1.0000   1.0000   1.0000   1.0000
     1.0000   1.0000   1.0000   1.0000   1.0000   1.0000   1.0000   1.0000
     1.0000   1.0000   1.0000   1.0000   1.0000   1.0000   1.0000   1.0000
     1.0000   1.0000   1.0000   1.0000   1.0000   1.0000   1.0000   1.0000
     1.0000   1.0000   1.0000   1.0000   1.0000   1.0000   1.0000   1.0000
     1.0000   1.0000   1.0000   1.0000   1.0000   1.0000   1.0000   1.0000
     1.0000   1.0000   1.0000   1.0000   1.0000   1.0000   1.0000   1.0000
     1.0000   1.0000   1.0000   1.0000   1.0000   1.0000   1.0000   1.0000
     1.0000   1.0000   1.0000   1.0000   1.0000   1.0000   1.0000   1.0000
     1.0000   1.0000   1.0000   1.0000   1.0000   1.0000   1.0000   1.0000
     1.0000   1.0000   1.0000   1.0000   1.0000   1.0000   1.0000   1.0000
     1.0000   1.0000   1.0000   1.0000   1.0000   1.0000   1.0000   1.0000
     1.0000   1.0000   1.0000   1.0000   1.0000   1.0000   1.0000   1.0000
     1.0000   1.0000   1.0000   1.0000   1.0000   1.0000   1.0000   1.0000
     1.0000   1.0000   1.0000   1.0000   1.0000   1.0000   1.0000   1.0000
     1.0000   1.0000   1.0000   1.0000   1.0000   1.0000   1.0000   1.0000
     1.0000   1.0000   1.0000   1.0000   1.0000   1.0000   1.0000   1.0000
     1.0000   1.0000   1.0000   1.0000   1.0000   1.0000   1.0000   1.0000
     1.0000   1.0000   1.0000   1.0000   1.0000   1.0000   1.0000   1.0000
     1.0000   1.0000   1.0000   1.0000   1.0000   1.0000   1.0000   1.0000
     1.0000   1.0000   1.0000   1.0000   1.0000   1.0000   1.0000   1.0000
     1.0000   1.0000   1.0000   1.0000   1.0000   1.0000   1.0000   1.0000
     1.0000   1.0000   1.0000   1.0000   1.0000   1.0000   1.0000   1.0000
     0.0000   0.0000   0.0000   0.0000   0.0000   0.0000   0.0000   0.0000
     0.0000   0.0000   0.0000   0.0000   0.0000   0.0000   0.0000   0.0000
     0.0000   0.0000   0.0000   0.0000   0.0000   0.0000   0.0000   0.0000
     0.0000   0.0000   0.0000   0.0000   0.0000   0.0000   0.0000   0.0000
     0.0000   0.0000   0.0000   0.0000   0.0000   0.0000   0.0000   0.0000
     0.0000   0.0000   0.0000   0.0000   0.0000   0.0000   0.0000   0.0000
     0.0000   0.0000   0.0000   0.0000

          k = 0.0833 0.5292 0.0000 (126351 PWs)   bands (ev):

   -60.2500 -60.2483 -60.2422 -60.2382 -60.2296 -60.2278 -60.2271 -60.2255
   -60.2246 -60.2229 -60.2194 -60.2193 -60.2177 -60.2176 -60.2151 -60.2144
   -34.5245 -34.5185 -34.5166 -34.5100 -34.5023 -34.4931 -34.4860 -34.4757
   -34.4566 -34.4477 -34.4328 -34.4211 -34.3916 -34.3724 -34.3690 -34.3654
   -34.3568 -34.3487 -34.3438 -34.3312 -34.3277 -34.3263 -34.3231 -34.3211
   -34.3178 -34.3108 -34.3105 -34.3101 -34.3074 -34.3072 -34.3071 -34.3021
   -34.3007 -34.3005 -34.2948 -34.2874 -34.2741 -34.2706 -34.2639 -34.2605
   -34.2597 -34.2558 -34.2492 -34.2323 -34.2315 -34.2184 -34.2001 -34.1962
   -13.2214 -13.1491 -12.8745 -12.6841 -12.2434 -12.1471 -12.1068 -12.0283
   -12.0196 -11.9988 -11.9572 -11.8865 -11.8573 -11.8087 -11.6502 -11.6401
   -11.6292 -11.5890 -11.5754 -11.5418 -11.5387 -11.5384 -11.5219 -11.4835
   -11.3915 -11.3912 -11.3849 -11.3489 -11.3433 -11.3431 -11.2626 -11.2390
    -4.8320  -4.8301  -4.8001  -4.7492  -4.7461  -4.7166  -4.7059  -4.6598
    -4.6421  -4.5681  -4.4740  -4.4545  -4.3956  -4.3820  -4.3565  -4.3331
    -4.2846  -4.2589  -4.2288  -4.1521  -4.0916  -4.0853  -3.8009  -3.6897
    -3.5854  -3.4739  -3.3779  -3.2986  -3.2791  -3.2769  -3.2584  -3.2558
    -3.2509  -3.2385  -3.2322  -3.2254  -3.1708  -3.1633  -3.1396  -3.1288
    -3.0831  -2.9091  -2.7241  -2.6038  -2.5640  -2.5283  -2.5278  -2.5156
    -2.5144  -2.5120  -2.5100  -2.4800  -2.4490  -2.3834  -2.3827  -2.3699
    -2.3694  -2.3631  -2.3140  -2.2786  -2.1632  -2.0067  -1.8490  -1.8479
    -1.7715  -1.6976  -1.4836  -1.4632  -1.3958  -1.3832  -1.3469  -1.3100
    -1.3074  -1.2906  -1.2769  -1.2758  -1.2608  -1.1791  -1.1764  -1.1486
    -1.1309  -1.0877  -1.0819  -1.0759  -1.0457  -1.0274  -0.7177  -0.7135
    -0.6475  -0.5791  -0.5570  -0.5396  -0.4250  -0.3995  -0.2947  -0.2774
    -0.2593  -0.2093  -0.1740  -0.1679  -0.1568  -0.1371   0.0547   0.0928
     0.0953   0.2088   0.2139   0.2338   0.4441   0.4932   0.5394   0.5526
     2.3966   2.5408   2.6329   2.6405   2.6912   2.7013   2.7161   2.8112
     2.8224   2.8251   2.8351   2.8555   2.8710   2.8740   3.0822   3.0824
     3.0971   3.1059   3.1065   3.1082   3.1328   3.1382   3.1444   3.1537
     3.1606   3.1750   3.1912   3.1920   3.3124   3.3147   3.3634   3.4317
     3.4529   3.4788   3.4913   3.5119   3.7163   3.7170   3.7174   3.7739
     3.8229   3.8770   3.9079   4.0564   4.1507   4.1713   4.1799   4.2577
     4.2660   4.2787   4.3140   4.4934

     occupation numbers 
     1.0000   1.0000   1.0000   1.0000   1.0000   1.0000   1.0000   1.0000
     1.0000   1.0000   1.0000   1.0000   1.0000   1.0000   1.0000   1.0000
     1.0000   1.0000   1.0000   1.0000   1.0000   1.0000   1.0000   1.0000
     1.0000   1.0000   1.0000   1.0000   1.0000   1.0000   1.0000   1.0000
     1.0000   1.0000   1.0000   1.0000   1.0000   1.0000   1.0000   1.0000
     1.0000   1.0000   1.0000   1.0000   1.0000   1.0000   1.0000   1.0000
     1.0000   1.0000   1.0000   1.0000   1.0000   1.0000   1.0000   1.0000
     1.0000   1.0000   1.0000   1.0000   1.0000   1.0000   1.0000   1.0000
     1.0000   1.0000   1.0000   1.0000   1.0000   1.0000   1.0000   1.0000
     1.0000   1.0000   1.0000   1.0000   1.0000   1.0000   1.0000   1.0000
     1.0000   1.0000   1.0000   1.0000   1.0000   1.0000   1.0000   1.0000
     1.0000   1.0000   1.0000   1.0000   1.0000   1.0000   1.0000   1.0000
     1.0000   1.0000   1.0000   1.0000   1.0000   1.0000   1.0000   1.0000
     1.0000   1.0000   1.0000   1.0000   1.0000   1.0000   1.0000   1.0000
     1.0000   1.0000   1.0000   1.0000   1.0000   1.0000   1.0000   1.0000
     1.0000   1.0000   1.0000   1.0000   1.0000   1.0000   1.0000   1.0000
     1.0000   1.0000   1.0000   1.0000   1.0000   1.0000   1.0000   1.0000
     1.0000   1.0000   1.0000   1.0000   1.0000   1.0000   1.0000   1.0000
     1.0000   1.0000   1.0000   1.0000   1.0000   1.0000   1.0000   1.0000
     1.0000   1.0000   1.0000   1.0000   1.0000   1.0000   1.0000   1.0000
     1.0000   1.0000   1.0000   1.0000   1.0000   1.0000   1.0000   1.0000
     1.0000   1.0000   1.0000   1.0000   1.0000   1.0000   1.0000   1.0000
     1.0000   1.0000   1.0000   1.0000   1.0000   1.0000   1.0000   1.0000
     1.0000   1.0000   1.0000   1.0000   1.0000   1.0000   1.0000   1.0000
     1.0000   1.0000   1.0000   1.0000   1.0000   1.0000   1.0000   1.0000
     1.0000   1.0000   1.0000   1.0000   1.0000   1.0000   1.0000   1.0000
     0.0000   0.0000   0.0000   0.0000   0.0000   0.0000   0.0000   0.0000
     0.0000   0.0000   0.0000   0.0000   0.0000   0.0000   0.0000   0.0000
     0.0000   0.0000   0.0000   0.0000   0.0000   0.0000   0.0000   0.0000
     0.0000   0.0000   0.0000   0.0000   0.0000   0.0000   0.0000   0.0000
     0.0000   0.0000   0.0000   0.0000   0.0000   0.0000   0.0000   0.0000
     0.0000   0.0000   0.0000   0.0000   0.0000   0.0000   0.0000   0.0000
     0.0000   0.0000   0.0000   0.0000

          k = 0.0833 0.5774 0.0000 (126361 PWs)   bands (ev):

   -60.2492 -60.2492 -60.2423 -60.2382 -60.2287 -60.2287 -60.2263 -60.2263
   -60.2237 -60.2237 -60.2194 -60.2193 -60.2177 -60.2177 -60.2150 -60.2144
   -34.5206 -34.5206 -34.5144 -34.5144 -34.4945 -34.4944 -34.4932 -34.4755
   -34.4523 -34.4523 -34.4271 -34.4271 -34.3921 -34.3708 -34.3707 -34.3657
   -34.3568 -34.3487 -34.3434 -34.3295 -34.3294 -34.3247 -34.3247 -34.3194
   -34.3194 -34.3107 -34.3106 -34.3073 -34.3073 -34.3067 -34.3052 -34.3052
   -34.3020 -34.3006 -34.2910 -34.2910 -34.2689 -34.2689 -34.2655 -34.2654
   -34.2578 -34.2578 -34.2405 -34.2405 -34.2316 -34.2185 -34.1981 -34.1981
   -13.1866 -13.1866 -12.8759 -12.6853 -12.1955 -12.1955 -12.0634 -12.0634
   -12.0141 -12.0140 -11.9060 -11.9060 -11.8871 -11.8092 -11.6453 -11.6453
   -11.6092 -11.6092 -11.5572 -11.5572 -11.5400 -11.5400 -11.5022 -11.5022
   -11.3914 -11.3914 -11.3829 -11.3459 -11.3459 -11.3416 -11.2618 -11.2382
    -4.7902  -4.7902  -4.7898  -4.7898  -4.7538  -4.7538  -4.6802  -4.6802
    -4.6625  -4.5710  -4.4649  -4.4649  -4.3962  -4.3808  -4.3443  -4.3443
    -4.2843  -4.2441  -4.2441  -4.1475  -4.0884  -4.0884  -3.7471  -3.7471
    -3.5279  -3.5279  -3.3120  -3.3120  -3.2795  -3.2795  -3.2666  -3.2666
    -3.2555  -3.2555  -3.2456  -3.2294  -3.1559  -3.1559  -3.1473  -3.1473
    -3.0819  -2.9072  -2.7249  -2.5969  -2.5263  -2.5262  -2.5209  -2.5209
    -2.5109  -2.5109  -2.4918  -2.4918  -2.4485  -2.4485  -2.3770  -2.3700
    -2.3605  -2.3431  -2.3430  -2.2754  -2.1699  -1.9271  -1.9271  -1.8539
    -1.7358  -1.7358  -1.4653  -1.4000  -1.3718  -1.3718  -1.3494  -1.3266
    -1.3266  -1.3112  -1.2413  -1.2413  -1.2251  -1.2251  -1.1859  -1.1859
    -1.1400  -1.1400  -1.0672  -1.0672  -1.0527  -1.0527  -0.7137  -0.7137
    -0.6122  -0.6122  -0.5460  -0.5460  -0.4090  -0.4090  -0.2895  -0.2727
    -0.2364  -0.2364  -0.1639  -0.1639  -0.1561  -0.1561   0.0563   0.0949
     0.0949   0.2121   0.2122   0.2355   0.4481   0.5249   0.5249   0.5437
     2.3918   2.5369   2.6334   2.6335   2.6900   2.7057   2.7057   2.8110
     2.8231   2.8231   2.8459   2.8459   2.8730   2.8730   3.0981   3.1037
     3.1131   3.1131   3.1201   3.1201   3.1227   3.1227   3.1356   3.1356
     3.1545   3.1554   3.1807   3.1808   3.3130   3.3130   3.3981   3.3981
     3.4658   3.4658   3.5003   3.5003   3.7161   3.7161   3.7693   3.7693
     3.7738   3.8779   3.9133   4.0618   4.2154   4.2154   4.2203   4.2204
     4.2464   4.2464   4.2582   4.4943

     occupation numbers 
     1.0000   1.0000   1.0000   1.0000   1.0000   1.0000   1.0000   1.0000
     1.0000   1.0000   1.0000   1.0000   1.0000   1.0000   1.0000   1.0000
     1.0000   1.0000   1.0000   1.0000   1.0000   1.0000   1.0000   1.0000
     1.0000   1.0000   1.0000   1.0000   1.0000   1.0000   1.0000   1.0000
     1.0000   1.0000   1.0000   1.0000   1.0000   1.0000   1.0000   1.0000
     1.0000   1.0000   1.0000   1.0000   1.0000   1.0000   1.0000   1.0000
     1.0000   1.0000   1.0000   1.0000   1.0000   1.0000   1.0000   1.0000
     1.0000   1.0000   1.0000   1.0000   1.0000   1.0000   1.0000   1.0000
     1.0000   1.0000   1.0000   1.0000   1.0000   1.0000   1.0000   1.0000
     1.0000   1.0000   1.0000   1.0000   1.0000   1.0000   1.0000   1.0000
     1.0000   1.0000   1.0000   1.0000   1.0000   1.0000   1.0000   1.0000
     1.0000   1.0000   1.0000   1.0000   1.0000   1.0000   1.0000   1.0000
     1.0000   1.0000   1.0000   1.0000   1.0000   1.0000   1.0000   1.0000
     1.0000   1.0000   1.0000   1.0000   1.0000   1.0000   1.0000   1.0000
     1.0000   1.0000   1.0000   1.0000   1.0000   1.0000   1.0000   1.0000
     1.0000   1.0000   1.0000   1.0000   1.0000   1.0000   1.0000   1.0000
     1.0000   1.0000   1.0000   1.0000   1.0000   1.0000   1.0000   1.0000
     1.0000   1.0000   1.0000   1.0000   1.0000   1.0000   1.0000   1.0000
     1.0000   1.0000   1.0000   1.0000   1.0000   1.0000   1.0000   1.0000
     1.0000   1.0000   1.0000   1.0000   1.0000   1.0000   1.0000   1.0000
     1.0000   1.0000   1.0000   1.0000   1.0000   1.0000   1.0000   1.0000
     1.0000   1.0000   1.0000   1.0000   1.0000   1.0000   1.0000   1.0000
     1.0000   1.0000   1.0000   1.0000   1.0000   1.0000   1.0000   1.0000
     1.0000   1.0000   1.0000   1.0000   1.0000   1.0000   1.0000   1.0000
     1.0000   1.0000   1.0000   1.0000   1.0000   1.0000   1.0000   1.0000
     1.0000   1.0000   1.0000   1.0000   1.0000   1.0000   1.0000   1.0000
     0.0000   0.0000   0.0000   0.0000   0.0000   0.0000   0.0000   0.0000
     0.0000   0.0000   0.0000   0.0000   0.0000   0.0000   0.0000   0.0000
     0.0000   0.0000   0.0000   0.0000   0.0000   0.0000   0.0000   0.0000
     0.0000   0.0000   0.0000   0.0000   0.0000   0.0000   0.0000   0.0000
     0.0000   0.0000   0.0000   0.0000   0.0000   0.0000   0.0000   0.0000
     0.0000   0.0000   0.0000   0.0000   0.0000   0.0000   0.0000   0.0000
     0.0000   0.0000   0.0000   0.0000

          k = 0.1250 0.2165 0.0000 (126321 PWs)   bands (ev):

   -60.2535 -60.2416 -60.2416 -60.2359 -60.2358 -60.2311 -60.2311 -60.2227
   -60.2203 -60.2203 -60.2191 -60.2191 -60.2181 -60.2169 -60.2169 -60.2156
   -34.5420 -34.5377 -34.5377 -34.4906 -34.4906 -34.4807 -34.4807 -34.4801
   -34.4619 -34.4208 -34.4208 -34.3795 -34.3725 -34.3716 -34.3715 -34.3554
   -34.3554 -34.3456 -34.3456 -34.3439 -34.3439 -34.3344 -34.3344 -34.3173
   -34.3171 -34.3171 -34.3139 -34.3139 -34.3126 -34.3126 -34.3102 -34.3102
   -34.3081 -34.3058 -34.3057 -34.3042 -34.3031 -34.2778 -34.2695 -34.2695
   -34.2412 -34.2412 -34.2328 -34.2328 -34.2164 -34.2164 -34.1960 -34.1878
   -13.3720 -12.8439 -12.8439 -12.5676 -12.5676 -12.3250 -12.3250 -12.0898
   -11.8745 -11.8745 -11.8569 -11.7623 -11.7623 -11.7144 -11.7144 -11.6658
   -11.6658 -11.6209 -11.6209 -11.5556 -11.5031 -11.5031 -11.4665 -11.4213
   -11.4082 -11.4082 -11.3936 -11.3936 -11.3659 -11.3154 -11.3154 -11.2750
    -5.0279  -5.0202  -5.0202  -4.8832  -4.5331  -4.5070  -4.5070  -4.4616
    -4.4616  -4.4239  -4.4028  -4.4028  -4.3896  -4.3896  -4.3821  -4.3821
    -4.2960  -4.2960  -4.2956  -4.1434  -4.0552  -4.0552  -4.0449  -4.0449
    -3.8259  -3.3768  -3.3656  -3.3655  -3.2477  -3.2477  -3.2231  -3.2231
    -3.1621  -3.1620  -3.0790  -3.0790  -3.0416  -3.0416  -3.0117  -2.9983
    -2.9546  -2.9546  -2.8901  -2.8901  -2.6551  -2.6408  -2.5914  -2.5914
    -2.5317  -2.5317  -2.5174  -2.4916  -2.4916  -2.4858  -2.4858  -2.3988
    -2.2206  -2.2206  -2.0987  -2.0987  -2.0715  -2.0291  -2.0291  -1.9275
    -1.8478  -1.8478  -1.8159  -1.6565  -1.6565  -1.3979  -1.3979  -1.3864
    -1.2301  -1.1939  -1.1939  -1.1875  -1.1734  -1.1734  -1.1124  -1.1124
    -0.9453  -0.9449  -0.9449  -0.8759  -0.8758  -0.7991  -0.7991  -0.7109
    -0.6566  -0.6416  -0.5373  -0.5373  -0.4748  -0.4748  -0.4665  -0.4665
    -0.2380  -0.2380  -0.0649  -0.0649  -0.0622   0.0119   0.0119   0.0308
     0.0308   0.1426   0.1902   0.1902   0.2452   0.2452   0.3700   0.6506
     2.5781   2.7309   2.7309   2.7400   2.7400   2.7840   2.8134   2.8134
     2.8392   2.8392   2.8462   2.8462   2.8559   2.8559   2.8753   2.9626
     2.9626   3.0375   3.0375   3.1305   3.1305   3.2015   3.2785   3.2785
     3.2808   3.2808   3.3215   3.3285   3.3285   3.3970   3.4249   3.4249
     3.4683   3.5171   3.5923   3.6118   3.6118   3.6229   3.7720   3.7739
     3.7739   3.7819   3.7819   3.8278   3.8461   3.8461   4.2027   4.2027
     4.4732   4.4732   4.5115   4.5115

     occupation numbers 
     1.0000   1.0000   1.0000   1.0000   1.0000   1.0000   1.0000   1.0000
     1.0000   1.0000   1.0000   1.0000   1.0000   1.0000   1.0000   1.0000
     1.0000   1.0000   1.0000   1.0000   1.0000   1.0000   1.0000   1.0000
     1.0000   1.0000   1.0000   1.0000   1.0000   1.0000   1.0000   1.0000
     1.0000   1.0000   1.0000   1.0000   1.0000   1.0000   1.0000   1.0000
     1.0000   1.0000   1.0000   1.0000   1.0000   1.0000   1.0000   1.0000
     1.0000   1.0000   1.0000   1.0000   1.0000   1.0000   1.0000   1.0000
     1.0000   1.0000   1.0000   1.0000   1.0000   1.0000   1.0000   1.0000
     1.0000   1.0000   1.0000   1.0000   1.0000   1.0000   1.0000   1.0000
     1.0000   1.0000   1.0000   1.0000   1.0000   1.0000   1.0000   1.0000
     1.0000   1.0000   1.0000   1.0000   1.0000   1.0000   1.0000   1.0000
     1.0000   1.0000   1.0000   1.0000   1.0000   1.0000   1.0000   1.0000
     1.0000   1.0000   1.0000   1.0000   1.0000   1.0000   1.0000   1.0000
     1.0000   1.0000   1.0000   1.0000   1.0000   1.0000   1.0000   1.0000
     1.0000   1.0000   1.0000   1.0000   1.0000   1.0000   1.0000   1.0000
     1.0000   1.0000   1.0000   1.0000   1.0000   1.0000   1.0000   1.0000
     1.0000   1.0000   1.0000   1.0000   1.0000   1.0000   1.0000   1.0000
     1.0000   1.0000   1.0000   1.0000   1.0000   1.0000   1.0000   1.0000
     1.0000   1.0000   1.0000   1.0000   1.0000   1.0000   1.0000   1.0000
     1.0000   1.0000   1.0000   1.0000   1.0000   1.0000   1.0000   1.0000
     1.0000   1.0000   1.0000   1.0000   1.0000   1.0000   1.0000   1.0000
     1.0000   1.0000   1.0000   1.0000   1.0000   1.0000   1.0000   1.0000
     1.0000   1.0000   1.0000   1.0000   1.0000   1.0000   1.0000   1.0000
     1.0000   1.0000   1.0000   1.0000   1.0000   1.0000   1.0000   1.0000
     1.0000   1.0000   1.0000   1.0000   1.0000   1.0000   1.0000   1.0000
     1.0000   1.0000   1.0000   1.0000   1.0000   1.0000   1.0000   1.0000
     0.0000   0.0000   0.0000   0.0000   0.0000   0.0000   0.0000   0.0000
     0.0000   0.0000   0.0000   0.0000   0.0000   0.0000   0.0000   0.0000
     0.0000   0.0000   0.0000   0.0000   0.0000   0.0000   0.0000   0.0000
     0.0000   0.0000   0.0000   0.0000   0.0000   0.0000   0.0000   0.0000
     0.0000   0.0000   0.0000   0.0000   0.0000   0.0000   0.0000   0.0000
     0.0000   0.0000   0.0000   0.0000   0.0000   0.0000   0.0000   0.0000
     0.0000   0.0000   0.0000   0.0000

          k = 0.1250 0.2646 0.0000 (126354 PWs)   bands (ev):

   -60.2532 -60.2427 -60.2420 -60.2362 -60.2350 -60.2305 -60.2300 -60.2235
   -60.2210 -60.2203 -60.2195 -60.2192 -60.2180 -60.2169 -60.2165 -60.2153
   -34.5404 -34.5352 -34.5341 -34.4941 -34.4923 -34.4841 -34.4790 -34.4786
   -34.4573 -34.4317 -34.4264 -34.3787 -34.3783 -34.3781 -34.3672 -34.3577
   -34.3563 -34.3488 -34.3446 -34.3423 -34.3415 -34.3331 -34.3322 -34.3190
   -34.3140 -34.3126 -34.3125 -34.3109 -34.3109 -34.3104 -34.3079 -34.3074
   -34.3060 -34.3058 -34.3049 -34.3024 -34.2988 -34.2809 -34.2707 -34.2686
   -34.2438 -34.2438 -34.2362 -34.2331 -34.2159 -34.2138 -34.1998 -34.1887
   -13.3562 -12.8956 -12.8628 -12.5842 -12.5266 -12.2893 -12.2653 -12.0833
   -11.9049 -11.8955 -11.8821 -11.7688 -11.7549 -11.7455 -11.7112 -11.6514
   -11.6456 -11.6422 -11.6288 -11.5497 -11.5043 -11.4868 -11.4768 -11.4260
   -11.4080 -11.4029 -11.3999 -11.3957 -11.3621 -11.3174 -11.3041 -11.2650
    -5.0068  -4.9983  -4.9960  -4.8651  -4.5688  -4.5354  -4.5147  -4.4966
    -4.4582  -4.4417  -4.4227  -4.4216  -4.4174  -4.4116  -4.3992  -4.3725
    -4.2911  -4.2886  -4.2594  -4.1594  -4.0516  -4.0448  -4.0295  -3.9795
    -3.7484  -3.3698  -3.3557  -3.3538  -3.3224  -3.2861  -3.2261  -3.2214
    -3.1742  -3.1515  -3.1138  -3.1100  -3.0712  -3.0575  -3.0423  -3.0153
    -2.9318  -2.9292  -2.8940  -2.8479  -2.7043  -2.6449  -2.5960  -2.5831
    -2.5177  -2.4911  -2.4903  -2.4874  -2.4805  -2.4640  -2.4509  -2.3702
    -2.2350  -2.1503  -2.1394  -2.1278  -2.1073  -2.1067  -2.0621  -1.9111
    -1.7710  -1.7512  -1.7470  -1.6677  -1.6014  -1.4525  -1.4476  -1.4212
    -1.2703  -1.2250  -1.1875  -1.1848  -1.1641  -1.1629  -1.1521  -1.1173
    -0.9726  -0.9469  -0.8997  -0.8941  -0.8474  -0.8368  -0.7954  -0.7437
    -0.6720  -0.5974  -0.5436  -0.5251  -0.4905  -0.4873  -0.4400  -0.4301
    -0.2595  -0.2412  -0.0902  -0.0844  -0.0462  -0.0140   0.0027   0.0249
     0.0354   0.1642   0.2117   0.2445   0.2457   0.2832   0.4109   0.6421
     2.5332   2.6999   2.7148   2.7223   2.7414   2.7539   2.7891   2.8149
     2.8393   2.8405   2.8498   2.8516   2.8581   2.8613   2.8767   2.9694
     2.9868   3.0435   3.0518   3.1431   3.1633   3.1878   3.2435   3.2448
     3.2454   3.2774   3.3000   3.3059   3.3204   3.3711   3.4071   3.4240
     3.4753   3.4971   3.5739   3.5952   3.6021   3.6688   3.7690   3.7804
     3.7814   3.8220   3.8365   3.8627   3.8819   3.8872   4.1472   4.1965
     4.4506   4.4655   4.5183   4.5651

     occupation numbers 
     1.0000   1.0000   1.0000   1.0000   1.0000   1.0000   1.0000   1.0000
     1.0000   1.0000   1.0000   1.0000   1.0000   1.0000   1.0000   1.0000
     1.0000   1.0000   1.0000   1.0000   1.0000   1.0000   1.0000   1.0000
     1.0000   1.0000   1.0000   1.0000   1.0000   1.0000   1.0000   1.0000
     1.0000   1.0000   1.0000   1.0000   1.0000   1.0000   1.0000   1.0000
     1.0000   1.0000   1.0000   1.0000   1.0000   1.0000   1.0000   1.0000
     1.0000   1.0000   1.0000   1.0000   1.0000   1.0000   1.0000   1.0000
     1.0000   1.0000   1.0000   1.0000   1.0000   1.0000   1.0000   1.0000
     1.0000   1.0000   1.0000   1.0000   1.0000   1.0000   1.0000   1.0000
     1.0000   1.0000   1.0000   1.0000   1.0000   1.0000   1.0000   1.0000
     1.0000   1.0000   1.0000   1.0000   1.0000   1.0000   1.0000   1.0000
     1.0000   1.0000   1.0000   1.0000   1.0000   1.0000   1.0000   1.0000
     1.0000   1.0000   1.0000   1.0000   1.0000   1.0000   1.0000   1.0000
     1.0000   1.0000   1.0000   1.0000   1.0000   1.0000   1.0000   1.0000
     1.0000   1.0000   1.0000   1.0000   1.0000   1.0000   1.0000   1.0000
     1.0000   1.0000   1.0000   1.0000   1.0000   1.0000   1.0000   1.0000
     1.0000   1.0000   1.0000   1.0000   1.0000   1.0000   1.0000   1.0000
     1.0000   1.0000   1.0000   1.0000   1.0000   1.0000   1.0000   1.0000
     1.0000   1.0000   1.0000   1.0000   1.0000   1.0000   1.0000   1.0000
     1.0000   1.0000   1.0000   1.0000   1.0000   1.0000   1.0000   1.0000
     1.0000   1.0000   1.0000   1.0000   1.0000   1.0000   1.0000   1.0000
     1.0000   1.0000   1.0000   1.0000   1.0000   1.0000   1.0000   1.0000
     1.0000   1.0000   1.0000   1.0000   1.0000   1.0000   1.0000   1.0000
     1.0000   1.0000   1.0000   1.0000   1.0000   1.0000   1.0000   1.0000
     1.0000   1.0000   1.0000   1.0000   1.0000   1.0000   1.0000   1.0000
     1.0000   1.0000   1.0000   1.0000   1.0000   1.0000   1.0000   1.0000
     0.0000   0.0000   0.0000   0.0000   0.0000   0.0000   0.0000   0.0000
     0.0000   0.0000   0.0000   0.0000   0.0000   0.0000   0.0000   0.0000
     0.0000   0.0000   0.0000   0.0000   0.0000   0.0000   0.0000   0.0000
     0.0000   0.0000   0.0000   0.0000   0.0000   0.0000   0.0000   0.0000
     0.0000   0.0000   0.0000   0.0000   0.0000   0.0000   0.0000   0.0000
     0.0000   0.0000   0.0000   0.0000   0.0000   0.0000   0.0000   0.0000
     0.0000   0.0000   0.0000   0.0000

          k = 0.1250 0.3127 0.0000 (126321 PWs)   bands (ev):

   -60.2527 -60.2438 -60.2423 -60.2365 -60.2342 -60.2298 -60.2289 -60.2243
   -60.2217 -60.2202 -60.2200 -60.2193 -60.2179 -60.2170 -60.2161 -60.2150
   -34.5384 -34.5324 -34.5297 -34.4981 -34.4938 -34.4878 -34.4770 -34.4769
   -34.4524 -34.4424 -34.4319 -34.3851 -34.3832 -34.3778 -34.3633 -34.3599
   -34.3570 -34.3516 -34.3452 -34.3406 -34.3369 -34.3317 -34.3300 -34.3207
   -34.3154 -34.3124 -34.3119 -34.3106 -34.3086 -34.3077 -34.3076 -34.3059
   -34.3042 -34.3018 -34.3010 -34.2951 -34.2934 -34.2843 -34.2724 -34.2675
   -34.2467 -34.2464 -34.2398 -34.2335 -34.2156 -34.2112 -34.2044 -34.1898
   -13.3373 -12.9455 -12.8790 -12.5985 -12.4841 -12.2522 -12.2061 -12.0756
   -11.9538 -11.9158 -11.8886 -11.7962 -11.7744 -11.7281 -11.7074 -11.6748
   -11.6367 -11.6363 -11.6188 -11.5441 -11.5074 -11.5059 -11.4540 -11.4441
   -11.4138 -11.4078 -11.3976 -11.3814 -11.3582 -11.3196 -11.2943 -11.2563
    -4.9817  -4.9727  -4.9674  -4.8437  -4.5999  -4.5678  -4.5358  -4.5195
    -4.4849  -4.4591  -4.4559  -4.4540  -4.4319  -4.4078  -4.3981  -4.3613
    -4.2887  -4.2822  -4.2226  -4.1764  -4.0488  -4.0447  -3.9989  -3.9139
    -3.6696  -3.3953  -3.3611  -3.3441  -3.3406  -3.3253  -3.2283  -3.2176
    -3.1822  -3.1466  -3.1416  -3.1405  -3.1015  -3.0831  -3.0739  -3.0350
    -2.9697  -2.9111  -2.8299  -2.8061  -2.7382  -2.6447  -2.5954  -2.5738
    -2.5172  -2.4902  -2.4893  -2.4672  -2.4519  -2.4434  -2.3704  -2.3426
    -2.2455  -2.2052  -2.1856  -2.1782  -2.1479  -2.0981  -2.0284  -1.8915
    -1.6861  -1.6852  -1.6773  -1.6569  -1.5458  -1.5220  -1.4960  -1.4421
    -1.3081  -1.2530  -1.1883  -1.1880  -1.1816  -1.1525  -1.1503  -1.1229
    -1.0046  -0.9599  -0.9148  -0.8732  -0.8566  -0.8371  -0.8225  -0.7887
    -0.6362  -0.6220  -0.5549  -0.5140  -0.5091  -0.4398  -0.4178  -0.3932
    -0.2729  -0.2384  -0.1124  -0.1039  -0.0430  -0.0295  -0.0236   0.0370
     0.0405   0.1826   0.2305   0.2460   0.2966   0.3190   0.4496   0.6314
     2.4904   2.6696   2.6900   2.7066   2.7229   2.7535   2.7670   2.8152
     2.8247   2.8416   2.8468   2.8537   2.8609   2.8760   2.8889   2.9824
     3.0108   3.0521   3.0639   3.1536   3.1770   3.1973   3.2093   3.2161
     3.2165   3.2764   3.2769   3.2805   3.3125   3.3208   3.4187   3.4234
     3.4282   3.5308   3.5524   3.5684   3.5906   3.7214   3.7661   3.7786
     3.7846   3.8686   3.8771   3.8985   3.9239   3.9412   4.0910   4.1938
     4.4238   4.4509   4.5257   4.5698

     occupation numbers 
     1.0000   1.0000   1.0000   1.0000   1.0000   1.0000   1.0000   1.0000
     1.0000   1.0000   1.0000   1.0000   1.0000   1.0000   1.0000   1.0000
     1.0000   1.0000   1.0000   1.0000   1.0000   1.0000   1.0000   1.0000
     1.0000   1.0000   1.0000   1.0000   1.0000   1.0000   1.0000   1.0000
     1.0000   1.0000   1.0000   1.0000   1.0000   1.0000   1.0000   1.0000
     1.0000   1.0000   1.0000   1.0000   1.0000   1.0000   1.0000   1.0000
     1.0000   1.0000   1.0000   1.0000   1.0000   1.0000   1.0000   1.0000
     1.0000   1.0000   1.0000   1.0000   1.0000   1.0000   1.0000   1.0000
     1.0000   1.0000   1.0000   1.0000   1.0000   1.0000   1.0000   1.0000
     1.0000   1.0000   1.0000   1.0000   1.0000   1.0000   1.0000   1.0000
     1.0000   1.0000   1.0000   1.0000   1.0000   1.0000   1.0000   1.0000
     1.0000   1.0000   1.0000   1.0000   1.0000   1.0000   1.0000   1.0000
     1.0000   1.0000   1.0000   1.0000   1.0000   1.0000   1.0000   1.0000
     1.0000   1.0000   1.0000   1.0000   1.0000   1.0000   1.0000   1.0000
     1.0000   1.0000   1.0000   1.0000   1.0000   1.0000   1.0000   1.0000
     1.0000   1.0000   1.0000   1.0000   1.0000   1.0000   1.0000   1.0000
     1.0000   1.0000   1.0000   1.0000   1.0000   1.0000   1.0000   1.0000
     1.0000   1.0000   1.0000   1.0000   1.0000   1.0000   1.0000   1.0000
     1.0000   1.0000   1.0000   1.0000   1.0000   1.0000   1.0000   1.0000
     1.0000   1.0000   1.0000   1.0000   1.0000   1.0000   1.0000   1.0000
     1.0000   1.0000   1.0000   1.0000   1.0000   1.0000   1.0000   1.0000
     1.0000   1.0000   1.0000   1.0000   1.0000   1.0000   1.0000   1.0000
     1.0000   1.0000   1.0000   1.0000   1.0000   1.0000   1.0000   1.0000
     1.0000   1.0000   1.0000   1.0000   1.0000   1.0000   1.0000   1.0000
     1.0000   1.0000   1.0000   1.0000   1.0000   1.0000   1.0000   1.0000
     1.0000   1.0000   1.0000   1.0000   1.0000   1.0000   1.0000   1.0000
     0.0000   0.0000   0.0000   0.0000   0.0000   0.0000   0.0000   0.0000
     0.0000   0.0000   0.0000   0.0000   0.0000   0.0000   0.0000   0.0000
     0.0000   0.0000   0.0000   0.0000   0.0000   0.0000   0.0000   0.0000
     0.0000   0.0000   0.0000   0.0000   0.0000   0.0000   0.0000   0.0000
     0.0000   0.0000   0.0000   0.0000   0.0000   0.0000   0.0000   0.0000
     0.0000   0.0000   0.0000   0.0000   0.0000   0.0000   0.0000   0.0000
     0.0000   0.0000   0.0000   0.0000

          k = 0.1250 0.3608 0.0000 (126353 PWs)   bands (ev):

   -60.2522 -60.2448 -60.2426 -60.2367 -60.2333 -60.2291 -60.2279 -60.2252
   -60.2224 -60.2205 -60.2202 -60.2194 -60.2178 -60.2170 -60.2159 -60.2147
   -34.5360 -34.5292 -34.5247 -34.5022 -34.4950 -34.4919 -34.4755 -34.4744
   -34.4528 -34.4472 -34.4373 -34.3918 -34.3877 -34.3768 -34.3620 -34.3599
   -34.3575 -34.3540 -34.3456 -34.3388 -34.3320 -34.3302 -34.3278 -34.3225
   -34.3168 -34.3129 -34.3123 -34.3108 -34.3074 -34.3060 -34.3051 -34.3040
   -34.3036 -34.3014 -34.2947 -34.2881 -34.2879 -34.2845 -34.2744 -34.2663
   -34.2501 -34.2489 -34.2437 -34.2340 -34.2155 -34.2097 -34.2087 -34.1910
   -13.3154 -12.9934 -12.8926 -12.6105 -12.4400 -12.2138 -12.1477 -12.0667
   -12.0033 -11.9353 -11.8941 -11.8382 -11.7791 -11.7099 -11.7082 -11.7030
   -11.6445 -11.6206 -11.5958 -11.5389 -11.5283 -11.5077 -11.4624 -11.4347
   -11.4264 -11.4074 -11.3994 -11.3657 -11.3542 -11.3222 -11.2859 -11.2489
    -4.9526  -4.9438  -4.9349  -4.8190  -4.6260  -4.6034  -4.5782  -4.5311
    -4.5215  -4.4975  -4.4847  -4.4496  -4.4462  -4.4151  -4.3839  -4.3486
    -4.2888  -4.2769  -4.1941  -4.1866  -4.0468  -4.0446  -3.9635  -3.8488
    -3.5904  -3.4661  -3.3659  -3.3508  -3.3308  -3.3263  -3.2307  -3.2117
    -3.1859  -3.1769  -3.1688  -3.1326  -3.1313  -3.1298  -3.0907  -3.0564
    -3.0124  -2.8930  -2.7658  -2.7635  -2.7597  -2.6394  -2.5893  -2.5637
    -2.5159  -2.4916  -2.4915  -2.4516  -2.4246  -2.4149  -2.3170  -2.2901
    -2.2620  -2.2615  -2.2530  -2.2149  -2.1947  -2.1351  -1.9239  -1.8688
    -1.7064  -1.6081  -1.5949  -1.5939  -1.5655  -1.5430  -1.4900  -1.4603
    -1.3422  -1.2774  -1.2202  -1.1962  -1.1780  -1.1385  -1.1356  -1.1288
    -1.0409  -0.9838  -0.9375  -0.9359  -0.9081  -0.8157  -0.8015  -0.7805
    -0.7077  -0.6038  -0.5305  -0.5153  -0.5049  -0.4007  -0.3969  -0.3582
    -0.2782  -0.2299  -0.1309  -0.1207  -0.0742  -0.0484  -0.0153   0.0457
     0.0472   0.1981   0.2460   0.2465   0.3457   0.3512   0.4847   0.6182
     2.4513   2.6414   2.6672   2.6932   2.6934   2.7482   2.7668   2.8049
     2.8149   2.8417   2.8427   2.8577   2.8638   2.8731   2.9219   3.0004
     3.0343   3.0627   3.0738   3.1620   3.1674   3.1761   3.1933   3.1955
     3.2322   3.2529   3.2531   3.2756   3.2757   3.3048   3.3768   3.4238
     3.4318   3.5279   3.5428   3.5690   3.5775   3.7634   3.7681   3.7770
     3.7849   3.8892   3.9209   3.9594   3.9717   3.9886   4.0343   4.1934
     4.3929   4.4265   4.5309   4.5329

     occupation numbers 
     1.0000   1.0000   1.0000   1.0000   1.0000   1.0000   1.0000   1.0000
     1.0000   1.0000   1.0000   1.0000   1.0000   1.0000   1.0000   1.0000
     1.0000   1.0000   1.0000   1.0000   1.0000   1.0000   1.0000   1.0000
     1.0000   1.0000   1.0000   1.0000   1.0000   1.0000   1.0000   1.0000
     1.0000   1.0000   1.0000   1.0000   1.0000   1.0000   1.0000   1.0000
     1.0000   1.0000   1.0000   1.0000   1.0000   1.0000   1.0000   1.0000
     1.0000   1.0000   1.0000   1.0000   1.0000   1.0000   1.0000   1.0000
     1.0000   1.0000   1.0000   1.0000   1.0000   1.0000   1.0000   1.0000
     1.0000   1.0000   1.0000   1.0000   1.0000   1.0000   1.0000   1.0000
     1.0000   1.0000   1.0000   1.0000   1.0000   1.0000   1.0000   1.0000
     1.0000   1.0000   1.0000   1.0000   1.0000   1.0000   1.0000   1.0000
     1.0000   1.0000   1.0000   1.0000   1.0000   1.0000   1.0000   1.0000
     1.0000   1.0000   1.0000   1.0000   1.0000   1.0000   1.0000   1.0000
     1.0000   1.0000   1.0000   1.0000   1.0000   1.0000   1.0000   1.0000
     1.0000   1.0000   1.0000   1.0000   1.0000   1.0000   1.0000   1.0000
     1.0000   1.0000   1.0000   1.0000   1.0000   1.0000   1.0000   1.0000
     1.0000   1.0000   1.0000   1.0000   1.0000   1.0000   1.0000   1.0000
     1.0000   1.0000   1.0000   1.0000   1.0000   1.0000   1.0000   1.0000
     1.0000   1.0000   1.0000   1.0000   1.0000   1.0000   1.0000   1.0000
     1.0000   1.0000   1.0000   1.0000   1.0000   1.0000   1.0000   1.0000
     1.0000   1.0000   1.0000   1.0000   1.0000   1.0000   1.0000   1.0000
     1.0000   1.0000   1.0000   1.0000   1.0000   1.0000   1.0000   1.0000
     1.0000   1.0000   1.0000   1.0000   1.0000   1.0000   1.0000   1.0000
     1.0000   1.0000   1.0000   1.0000   1.0000   1.0000   1.0000   1.0000
     1.0000   1.0000   1.0000   1.0000   1.0000   1.0000   1.0000   1.0000
     1.0000   1.0000   1.0000   1.0000   1.0000   1.0000   1.0000   1.0000
     0.0000   0.0000   0.0000   0.0000   0.0000   0.0000   0.0000   0.0000
     0.0000   0.0000   0.0000   0.0000   0.0000   0.0000   0.0000   0.0000
     0.0000   0.0000   0.0000   0.0000   0.0000   0.0000   0.0000   0.0000
     0.0000   0.0000   0.0000   0.0000   0.0000   0.0000   0.0000   0.0000
     0.0000   0.0000   0.0000   0.0000   0.0000   0.0000   0.0000   0.0000
     0.0000   0.0000   0.0000   0.0000   0.0000   0.0000   0.0000   0.0000
     0.0000   0.0000   0.0000   0.0000

          k = 0.1250 0.4090 0.0000 (126389 PWs)   bands (ev):

   -60.2516 -60.2459 -60.2429 -60.2369 -60.2324 -60.2283 -60.2269 -60.2261
   -60.2231 -60.2211 -60.2201 -60.2195 -60.2177 -60.2171 -60.2156 -60.2145
   -34.5332 -34.5257 -34.5190 -34.5065 -34.4962 -34.4960 -34.4740 -34.4715
   -34.4627 -34.4425 -34.4418 -34.3986 -34.3916 -34.3756 -34.3640 -34.3580
   -34.3571 -34.3559 -34.3460 -34.3370 -34.3288 -34.3269 -34.3258 -34.3242
   -34.3183 -34.3141 -34.3122 -34.3110 -34.3072 -34.3061 -34.3031 -34.3022
   -34.3010 -34.3003 -34.2922 -34.2887 -34.2825 -34.2768 -34.2742 -34.2649
   -34.2538 -34.2513 -34.2478 -34.2344 -34.2157 -34.2154 -34.2062 -34.1925
   -13.2905 -13.0392 -12.9036 -12.6202 -12.3946 -12.1744 -12.0904 -12.0565
   -12.0531 -11.9539 -11.8985 -11.8806 -11.7828 -11.7455 -11.6981 -11.6912
   -11.6522 -11.6044 -11.5733 -11.5492 -11.5340 -11.5098 -11.4807 -11.4405
   -11.4190 -11.4071 -11.4009 -11.3531 -11.3503 -11.3250 -11.2792 -11.2429
    -4.9198  -4.9118  -4.8986  -4.7914  -4.6471  -4.6414  -4.6228  -4.5791
    -4.5371  -4.5208  -4.5078  -4.4599  -4.4453  -4.4211  -4.3693  -4.3345
    -4.2917  -4.2726  -4.2122  -4.1532  -4.0455  -4.0444  -3.9237  -3.7847
    -3.5345  -3.5117  -3.4083  -3.3388  -3.3157  -3.3114  -3.2343  -3.2048
    -3.2038  -3.1935  -3.1850  -3.1763  -3.1602  -3.1250  -3.1076  -3.0785
    -3.0583  -2.8780  -2.7726  -2.7282  -2.6955  -2.6284  -2.5771  -2.5531
    -2.5140  -2.4947  -2.4940  -2.4339  -2.4083  -2.3817  -2.3343  -2.3170
    -2.2945  -2.2582  -2.2497  -2.2465  -2.2103  -2.1708  -1.8431  -1.8158
    -1.7285  -1.6676  -1.5883  -1.5408  -1.4991  -1.4778  -1.4754  -1.4344
    -1.3716  -1.2975  -1.2470  -1.2127  -1.1740  -1.1350  -1.1221  -1.1187
    -1.0811  -1.0391  -1.0182  -0.9616  -0.9413  -0.7990  -0.7846  -0.7768
    -0.7722  -0.5752  -0.5545  -0.4989  -0.4798  -0.3891  -0.3602  -0.3273
    -0.2754  -0.2168  -0.1451  -0.1348  -0.1066  -0.0721  -0.0036   0.0509
     0.0549   0.2108   0.2456   0.2594   0.3789   0.3914   0.5149   0.6023
     2.4176   2.6167   2.6477   2.6673   2.6821   2.7336   2.7810   2.7831
     2.8148   2.8365   2.8436   2.8614   2.8665   2.8676   2.9600   3.0224
     3.0567   3.0746   3.0815   3.1472   3.1579   3.1684   3.1770   3.1784
     3.2237   3.2301   3.2375   3.2677   3.2753   3.2978   3.3226   3.4261
     3.4464   3.5009   3.5191   3.5631   3.6111   3.7611   3.7756   3.7834
     3.8074   3.8989   3.9774   3.9780   4.0186   4.0248   4.0280   4.1943
     4.3581   4.3907   4.4745   4.5393

     occupation numbers 
     1.0000   1.0000   1.0000   1.0000   1.0000   1.0000   1.0000   1.0000
     1.0000   1.0000   1.0000   1.0000   1.0000   1.0000   1.0000   1.0000
     1.0000   1.0000   1.0000   1.0000   1.0000   1.0000   1.0000   1.0000
     1.0000   1.0000   1.0000   1.0000   1.0000   1.0000   1.0000   1.0000
     1.0000   1.0000   1.0000   1.0000   1.0000   1.0000   1.0000   1.0000
     1.0000   1.0000   1.0000   1.0000   1.0000   1.0000   1.0000   1.0000
     1.0000   1.0000   1.0000   1.0000   1.0000   1.0000   1.0000   1.0000
     1.0000   1.0000   1.0000   1.0000   1.0000   1.0000   1.0000   1.0000
     1.0000   1.0000   1.0000   1.0000   1.0000   1.0000   1.0000   1.0000
     1.0000   1.0000   1.0000   1.0000   1.0000   1.0000   1.0000   1.0000
     1.0000   1.0000   1.0000   1.0000   1.0000   1.0000   1.0000   1.0000
     1.0000   1.0000   1.0000   1.0000   1.0000   1.0000   1.0000   1.0000
     1.0000   1.0000   1.0000   1.0000   1.0000   1.0000   1.0000   1.0000
     1.0000   1.0000   1.0000   1.0000   1.0000   1.0000   1.0000   1.0000
     1.0000   1.0000   1.0000   1.0000   1.0000   1.0000   1.0000   1.0000
     1.0000   1.0000   1.0000   1.0000   1.0000   1.0000   1.0000   1.0000
     1.0000   1.0000   1.0000   1.0000   1.0000   1.0000   1.0000   1.0000
     1.0000   1.0000   1.0000   1.0000   1.0000   1.0000   1.0000   1.0000
     1.0000   1.0000   1.0000   1.0000   1.0000   1.0000   1.0000   1.0000
     1.0000   1.0000   1.0000   1.0000   1.0000   1.0000   1.0000   1.0000
     1.0000   1.0000   1.0000   1.0000   1.0000   1.0000   1.0000   1.0000
     1.0000   1.0000   1.0000   1.0000   1.0000   1.0000   1.0000   1.0000
     1.0000   1.0000   1.0000   1.0000   1.0000   1.0000   1.0000   1.0000
     1.0000   1.0000   1.0000   1.0000   1.0000   1.0000   1.0000   1.0000
     1.0000   1.0000   1.0000   1.0000   1.0000   1.0000   1.0000   1.0000
     1.0000   1.0000   1.0000   1.0000   1.0000   1.0000   1.0000   1.0000
     0.0000   0.0000   0.0000   0.0000   0.0000   0.0000   0.0000   0.0000
     0.0000   0.0000   0.0000   0.0000   0.0000   0.0000   0.0000   0.0000
     0.0000   0.0000   0.0000   0.0000   0.0000   0.0000   0.0000   0.0000
     0.0000   0.0000   0.0000   0.0000   0.0000   0.0000   0.0000   0.0000
     0.0000   0.0000   0.0000   0.0000   0.0000   0.0000   0.0000   0.0000
     0.0000   0.0000   0.0000   0.0000   0.0000   0.0000   0.0000   0.0000
     0.0000   0.0000   0.0000   0.0000

          k = 0.1250 0.4571 0.0000 (126392 PWs)   bands (ev):

   -60.2510 -60.2468 -60.2430 -60.2370 -60.2315 -60.2276 -60.2270 -60.2259
   -60.2239 -60.2217 -60.2201 -60.2196 -60.2176 -60.2172 -60.2154 -60.2144
   -34.5301 -34.5219 -34.5126 -34.5108 -34.5006 -34.4967 -34.4727 -34.4723
   -34.4683 -34.4475 -34.4362 -34.4052 -34.3947 -34.3743 -34.3660 -34.3584
   -34.3573 -34.3549 -34.3463 -34.3352 -34.3273 -34.3260 -34.3238 -34.3217
   -34.3197 -34.3154 -34.3121 -34.3112 -34.3071 -34.3062 -34.3028 -34.3007
   -34.3000 -34.2967 -34.2966 -34.2828 -34.2795 -34.2771 -34.2643 -34.2634
   -34.2578 -34.2536 -34.2523 -34.2348 -34.2224 -34.2155 -34.2039 -34.1940
   -13.2627 -13.0827 -12.9118 -12.6274 -12.3480 -12.1340 -12.1031 -12.0451
   -12.0344 -11.9717 -11.9232 -11.9018 -11.7864 -11.7856 -11.6927 -11.6720
   -11.6597 -11.5877 -11.5701 -11.5515 -11.5295 -11.5123 -11.4990 -11.4560
   -11.4072 -11.4066 -11.4022 -11.3463 -11.3435 -11.3281 -11.2741 -11.2384
    -4.8837  -4.8771  -4.8591  -4.7609  -4.6809  -4.6684  -4.6630  -4.6279
    -4.5771  -4.5253  -4.5176  -4.4729  -4.4416  -4.4257  -4.3547  -4.3191
    -4.2972  -4.2694  -4.2307  -4.1246  -4.0446  -4.0442  -3.8794  -3.7225
    -3.6002  -3.4532  -3.4346  -3.3252  -3.2988  -3.2966  -3.2398  -3.2301
    -3.2172  -3.2132  -3.1941  -3.1876  -3.1797  -3.1242  -3.1189  -3.1083
    -3.1004  -2.8663  -2.7802  -2.6955  -2.6270  -2.6108  -2.5585  -2.5425
    -2.5116  -2.4994  -2.4968  -2.4140  -2.4009  -2.3954  -2.3701  -2.3540
    -2.3027  -2.2823  -2.2763  -2.2616  -2.2027  -2.1308  -1.8145  -1.7488
    -1.7427  -1.7050  -1.6318  -1.4871  -1.4764  -1.3999  -1.3951  -1.3942
    -1.3793  -1.3130  -1.2680  -1.2378  -1.1695  -1.1460  -1.1413  -1.1248
    -1.1035  -1.0997  -1.0623  -0.9865  -0.9728  -0.8946  -0.7718  -0.7650
    -0.7399  -0.5808  -0.5507  -0.4964  -0.4490  -0.3834  -0.3314  -0.3025
    -0.2653  -0.2001  -0.1551  -0.1462  -0.1391  -0.0949   0.0053   0.0555
     0.0601   0.2210   0.2445   0.2692   0.4008   0.4333   0.5390   0.5833
     2.3907   2.5969   2.6326   2.6462   2.6737   2.7242   2.7621   2.7956
     2.8153   2.8314   2.8445   2.8598   2.8648   2.8685   3.0030   3.0473
     3.0779   3.0872   3.0873   3.1239   3.1478   3.1632   3.1675   3.1729
     3.1937   3.2076   3.2089   3.2667   3.2756   3.2915   3.3033   3.4308
     3.4622   3.4717   3.4975   3.5474   3.6568   3.7593   3.7747   3.7811
     3.8382   3.9062   3.9208   4.0388   4.0586   4.0758   4.0825   4.1956
     4.3195   4.3443   4.4104   4.5445

     occupation numbers 
     1.0000   1.0000   1.0000   1.0000   1.0000   1.0000   1.0000   1.0000
     1.0000   1.0000   1.0000   1.0000   1.0000   1.0000   1.0000   1.0000
     1.0000   1.0000   1.0000   1.0000   1.0000   1.0000   1.0000   1.0000
     1.0000   1.0000   1.0000   1.0000   1.0000   1.0000   1.0000   1.0000
     1.0000   1.0000   1.0000   1.0000   1.0000   1.0000   1.0000   1.0000
     1.0000   1.0000   1.0000   1.0000   1.0000   1.0000   1.0000   1.0000
     1.0000   1.0000   1.0000   1.0000   1.0000   1.0000   1.0000   1.0000
     1.0000   1.0000   1.0000   1.0000   1.0000   1.0000   1.0000   1.0000
     1.0000   1.0000   1.0000   1.0000   1.0000   1.0000   1.0000   1.0000
     1.0000   1.0000   1.0000   1.0000   1.0000   1.0000   1.0000   1.0000
     1.0000   1.0000   1.0000   1.0000   1.0000   1.0000   1.0000   1.0000
     1.0000   1.0000   1.0000   1.0000   1.0000   1.0000   1.0000   1.0000
     1.0000   1.0000   1.0000   1.0000   1.0000   1.0000   1.0000   1.0000
     1.0000   1.0000   1.0000   1.0000   1.0000   1.0000   1.0000   1.0000
     1.0000   1.0000   1.0000   1.0000   1.0000   1.0000   1.0000   1.0000
     1.0000   1.0000   1.0000   1.0000   1.0000   1.0000   1.0000   1.0000
     1.0000   1.0000   1.0000   1.0000   1.0000   1.0000   1.0000   1.0000
     1.0000   1.0000   1.0000   1.0000   1.0000   1.0000   1.0000   1.0000
     1.0000   1.0000   1.0000   1.0000   1.0000   1.0000   1.0000   1.0000
     1.0000   1.0000   1.0000   1.0000   1.0000   1.0000   1.0000   1.0000
     1.0000   1.0000   1.0000   1.0000   1.0000   1.0000   1.0000   1.0000
     1.0000   1.0000   1.0000   1.0000   1.0000   1.0000   1.0000   1.0000
     1.0000   1.0000   1.0000   1.0000   1.0000   1.0000   1.0000   1.0000
     1.0000   1.0000   1.0000   1.0000   1.0000   1.0000   1.0000   1.0000
     1.0000   1.0000   1.0000   1.0000   1.0000   1.0000   1.0000   1.0000
     1.0000   1.0000   1.0000   1.0000   1.0000   1.0000   1.0000   1.0000
     0.0000   0.0000   0.0000   0.0000   0.0000   0.0000   0.0000   0.0000
     0.0000   0.0000   0.0000   0.0000   0.0000   0.0000   0.0000   0.0000
     0.0000   0.0000   0.0000   0.0000   0.0000   0.0000   0.0000   0.0000
     0.0000   0.0000   0.0000   0.0000   0.0000   0.0000   0.0000   0.0000
     0.0000   0.0000   0.0000   0.0000   0.0000   0.0000   0.0000   0.0000
     0.0000   0.0000   0.0000   0.0000   0.0000   0.0000   0.0000   0.0000
     0.0000   0.0000   0.0000   0.0000

          k = 0.1250 0.5052 0.0000 (126371 PWs)   bands (ev):

   -60.2502 -60.2478 -60.2432 -60.2371 -60.2306 -60.2279 -60.2269 -60.2249
   -60.2246 -60.2224 -60.2200 -60.2197 -60.2175 -60.2172 -60.2153 -60.2143
   -34.5267 -34.5179 -34.5150 -34.5057 -34.5050 -34.4972 -34.4814 -34.4718
   -34.4648 -34.4522 -34.4304 -34.4117 -34.3968 -34.3729 -34.3679 -34.3586
   -34.3583 -34.3534 -34.3465 -34.3334 -34.3279 -34.3258 -34.3219 -34.3212
   -34.3169 -34.3165 -34.3119 -34.3114 -34.3069 -34.3064 -34.3025 -34.3013
   -34.3005 -34.2985 -34.2929 -34.2825 -34.2772 -34.2719 -34.2622 -34.2617
   -34.2569 -34.2558 -34.2549 -34.2351 -34.2296 -34.2155 -34.2017 -34.1957
   -13.2321 -13.1239 -12.9173 -12.6323 -12.3003 -12.1530 -12.0928 -12.0326
   -11.9885 -11.9801 -11.9660 -11.9040 -11.8307 -11.7875 -11.6869 -11.6670
   -11.6523 -11.5910 -11.5706 -11.5304 -11.5253 -11.5172 -11.5150 -11.4729
   -11.4060 -11.4034 -11.3993 -11.3425 -11.3371 -11.3315 -11.2706 -11.2354
    -4.8446  -4.8402  -4.8167  -4.7278  -4.7213  -4.7141  -4.6768  -4.6737
    -4.6167  -4.5370  -4.5122  -4.4849  -4.4390  -4.4288  -4.3405  -4.3052
    -4.3027  -4.2673  -4.2492  -4.1034  -4.0441  -4.0440  -3.8310  -3.6629
    -3.6626  -3.5008  -3.3602  -3.3100  -3.2822  -3.2802  -3.2531  -3.2476
    -3.2475  -3.2270  -3.2134  -3.1827  -3.1702  -3.1633  -3.1402  -3.1213
    -3.1147  -2.8584  -2.7843  -2.6706  -2.5858  -2.5587  -2.5334  -2.5321
    -2.5089  -2.5057  -2.4997  -2.4601  -2.4193  -2.3920  -2.3864  -2.3627
    -2.3339  -2.3129  -2.2636  -2.2633  -2.2274  -2.0519  -1.8188  -1.7831
    -1.7645  -1.6731  -1.5928  -1.4950  -1.4162  -1.4116  -1.3251  -1.3235
    -1.3156  -1.2987  -1.2823  -1.2712  -1.2556  -1.1715  -1.1646  -1.1475
    -1.1149  -1.0827  -1.0785  -1.0116  -1.0023  -0.9935  -0.7631  -0.7598
    -0.7048  -0.6092  -0.5306  -0.4982  -0.4237  -0.3840  -0.3114  -0.2850
    -0.2487  -0.1810  -0.1707  -0.1607  -0.1547  -0.1173   0.0112   0.0594
     0.0629   0.2290   0.2425   0.2758   0.4160   0.4712   0.5558   0.5609
     2.3719   2.5830   2.6229   2.6308   2.6681   2.7203   2.7440   2.8103
     2.8167   2.8266   2.8451   2.8497   2.8674   2.8698   3.0503   3.0744
     3.0909   3.0976   3.1002   3.1077   3.1370   3.1482   3.1632   3.1645
     3.1758   3.1869   3.1908   3.2104   3.2767   3.2862   3.3387   3.4382
     3.4404   3.4783   3.4789   3.5308   3.7055   3.7580   3.7746   3.7787
     3.8594   3.8649   3.9111   4.0795   4.1020   4.1306   4.1441   4.1968
     4.2773   4.2896   4.3433   4.5481

     occupation numbers 
     1.0000   1.0000   1.0000   1.0000   1.0000   1.0000   1.0000   1.0000
     1.0000   1.0000   1.0000   1.0000   1.0000   1.0000   1.0000   1.0000
     1.0000   1.0000   1.0000   1.0000   1.0000   1.0000   1.0000   1.0000
     1.0000   1.0000   1.0000   1.0000   1.0000   1.0000   1.0000   1.0000
     1.0000   1.0000   1.0000   1.0000   1.0000   1.0000   1.0000   1.0000
     1.0000   1.0000   1.0000   1.0000   1.0000   1.0000   1.0000   1.0000
     1.0000   1.0000   1.0000   1.0000   1.0000   1.0000   1.0000   1.0000
     1.0000   1.0000   1.0000   1.0000   1.0000   1.0000   1.0000   1.0000
     1.0000   1.0000   1.0000   1.0000   1.0000   1.0000   1.0000   1.0000
     1.0000   1.0000   1.0000   1.0000   1.0000   1.0000   1.0000   1.0000
     1.0000   1.0000   1.0000   1.0000   1.0000   1.0000   1.0000   1.0000
     1.0000   1.0000   1.0000   1.0000   1.0000   1.0000   1.0000   1.0000
     1.0000   1.0000   1.0000   1.0000   1.0000   1.0000   1.0000   1.0000
     1.0000   1.0000   1.0000   1.0000   1.0000   1.0000   1.0000   1.0000
     1.0000   1.0000   1.0000   1.0000   1.0000   1.0000   1.0000   1.0000
     1.0000   1.0000   1.0000   1.0000   1.0000   1.0000   1.0000   1.0000
     1.0000   1.0000   1.0000   1.0000   1.0000   1.0000   1.0000   1.0000
     1.0000   1.0000   1.0000   1.0000   1.0000   1.0000   1.0000   1.0000
     1.0000   1.0000   1.0000   1.0000   1.0000   1.0000   1.0000   1.0000
     1.0000   1.0000   1.0000   1.0000   1.0000   1.0000   1.0000   1.0000
     1.0000   1.0000   1.0000   1.0000   1.0000   1.0000   1.0000   1.0000
     1.0000   1.0000   1.0000   1.0000   1.0000   1.0000   1.0000   1.0000
     1.0000   1.0000   1.0000   1.0000   1.0000   1.0000   1.0000   1.0000
     1.0000   1.0000   1.0000   1.0000   1.0000   1.0000   1.0000   1.0000
     1.0000   1.0000   1.0000   1.0000   1.0000   1.0000   1.0000   1.0000
     1.0000   1.0000   1.0000   1.0000   1.0000   1.0000   1.0000   1.0000
     0.0000   0.0000   0.0000   0.0000   0.0000   0.0000   0.0000   0.0000
     0.0000   0.0000   0.0000   0.0000   0.0000   0.0000   0.0000   0.0000
     0.0000   0.0000   0.0000   0.0000   0.0000   0.0000   0.0000   0.0000
     0.0000   0.0000   0.0000   0.0000   0.0000   0.0000   0.0000   0.0000
     0.0000   0.0000   0.0000   0.0000   0.0000   0.0000   0.0000   0.0000
     0.0000   0.0000   0.0000   0.0000   0.0000   0.0000   0.0000   0.0000
     0.0000   0.0000   0.0000   0.0000

          k = 0.1250 0.5533 0.0000 (126386 PWs)   bands (ev):

   -60.2495 -60.2486 -60.2432 -60.2372 -60.2297 -60.2288 -60.2261 -60.2253
   -60.2241 -60.2232 -60.2199 -60.2198 -60.2174 -60.2173 -60.2153 -60.2142
   -34.5230 -34.5191 -34.5138 -34.5094 -34.4981 -34.4974 -34.4900 -34.4713
   -34.4609 -34.4567 -34.4243 -34.4181 -34.3979 -34.3713 -34.3696 -34.3588
   -34.3587 -34.3527 -34.3466 -34.3316 -34.3297 -34.3243 -34.3228 -34.3201
   -34.3184 -34.3118 -34.3116 -34.3113 -34.3067 -34.3065 -34.3062 -34.3024
   -34.3004 -34.2977 -34.2892 -34.2858 -34.2719 -34.2669 -34.2667 -34.2617
   -34.2598 -34.2579 -34.2459 -34.2375 -34.2352 -34.2155 -34.1996 -34.1976
   -13.1987 -13.1626 -12.9200 -12.6347 -12.2519 -12.2027 -12.0509 -12.0190
   -12.0086 -12.0042 -11.9279 -11.9051 -11.8779 -11.7885 -11.6806 -11.6739
   -11.6322 -11.6117 -11.5531 -11.5352 -11.5216 -11.5181 -11.5102 -11.4910
   -11.4052 -11.4044 -11.3953 -11.3387 -11.3350 -11.3339 -11.2689 -11.2338
    -4.8029  -4.8016  -4.7718  -4.7617  -4.7592  -4.7250  -4.6925  -4.6790
    -4.6554  -4.5428  -4.5048  -4.4956  -4.4375  -4.4303  -4.3272  -4.3153
    -4.2854  -4.2675  -4.2662  -4.0920  -4.0439  -4.0439  -3.7786  -3.7225
    -3.6055  -3.5516  -3.2929  -3.2896  -3.2740  -3.2690  -3.2638  -3.2597
    -3.2572  -3.2375  -3.2340  -3.2238  -3.1697  -3.1569  -3.1555  -3.1404
    -3.1126  -2.8544  -2.7861  -2.6568  -2.5527  -2.5223  -2.5134  -2.5108
    -2.5059  -2.5028  -2.5016  -2.4913  -2.4634  -2.4258  -2.3817  -2.3677
    -2.3414  -2.3232  -2.2646  -2.2566  -2.2410  -1.9735  -1.8958  -1.7731
    -1.7489  -1.7122  -1.4990  -1.4799  -1.4201  -1.3672  -1.3613  -1.3289
    -1.3126  -1.2897  -1.2721  -1.2423  -1.2207  -1.1965  -1.1752  -1.1592
    -1.1535  -1.0944  -1.0602  -1.0552  -1.0364  -1.0298  -0.7584  -0.7574
    -0.6713  -0.6394  -0.5152  -0.5044  -0.4042  -0.3909  -0.3012  -0.2760
    -0.2266  -0.2002  -0.1623  -0.1605  -0.1602  -0.1392   0.0143   0.0622
     0.0635   0.2350   0.2394   0.2792   0.4237   0.5051   0.5349   0.5645
     2.3622   2.5759   2.6191   2.6217   2.6652   2.7225   2.7305   2.8192
     2.8225   2.8245   2.8378   2.8454   2.8692   2.8700   3.0928   3.0993
     3.1012   3.1031   3.1130   3.1159   3.1254   3.1326   3.1328   3.1549
     3.1678   3.1764   3.1768   3.1773   3.2788   3.2819   3.3736   3.4076
     3.4486   3.4620   3.4962   3.5136   3.7568   3.7574   3.7752   3.7766
     3.8101   3.8701   3.9135   4.0901   4.1661   4.1826   4.1976   4.2087
     4.2294   4.2316   4.2755   4.5500

     occupation numbers 
     1.0000   1.0000   1.0000   1.0000   1.0000   1.0000   1.0000   1.0000
     1.0000   1.0000   1.0000   1.0000   1.0000   1.0000   1.0000   1.0000
     1.0000   1.0000   1.0000   1.0000   1.0000   1.0000   1.0000   1.0000
     1.0000   1.0000   1.0000   1.0000   1.0000   1.0000   1.0000   1.0000
     1.0000   1.0000   1.0000   1.0000   1.0000   1.0000   1.0000   1.0000
     1.0000   1.0000   1.0000   1.0000   1.0000   1.0000   1.0000   1.0000
     1.0000   1.0000   1.0000   1.0000   1.0000   1.0000   1.0000   1.0000
     1.0000   1.0000   1.0000   1.0000   1.0000   1.0000   1.0000   1.0000
     1.0000   1.0000   1.0000   1.0000   1.0000   1.0000   1.0000   1.0000
     1.0000   1.0000   1.0000   1.0000   1.0000   1.0000   1.0000   1.0000
     1.0000   1.0000   1.0000   1.0000   1.0000   1.0000   1.0000   1.0000
     1.0000   1.0000   1.0000   1.0000   1.0000   1.0000   1.0000   1.0000
     1.0000   1.0000   1.0000   1.0000   1.0000   1.0000   1.0000   1.0000
     1.0000   1.0000   1.0000   1.0000   1.0000   1.0000   1.0000   1.0000
     1.0000   1.0000   1.0000   1.0000   1.0000   1.0000   1.0000   1.0000
     1.0000   1.0000   1.0000   1.0000   1.0000   1.0000   1.0000   1.0000
     1.0000   1.0000   1.0000   1.0000   1.0000   1.0000   1.0000   1.0000
     1.0000   1.0000   1.0000   1.0000   1.0000   1.0000   1.0000   1.0000
     1.0000   1.0000   1.0000   1.0000   1.0000   1.0000   1.0000   1.0000
     1.0000   1.0000   1.0000   1.0000   1.0000   1.0000   1.0000   1.0000
     1.0000   1.0000   1.0000   1.0000   1.0000   1.0000   1.0000   1.0000
     1.0000   1.0000   1.0000   1.0000   1.0000   1.0000   1.0000   1.0000
     1.0000   1.0000   1.0000   1.0000   1.0000   1.0000   1.0000   1.0000
     1.0000   1.0000   1.0000   1.0000   1.0000   1.0000   1.0000   1.0000
     1.0000   1.0000   1.0000   1.0000   1.0000   1.0000   1.0000   1.0000
     1.0000   1.0000   1.0000   1.0000   1.0000   1.0000   1.0000   1.0000
     0.0000   0.0000   0.0000   0.0000   0.0000   0.0000   0.0000   0.0000
     0.0000   0.0000   0.0000   0.0000   0.0000   0.0000   0.0000   0.0000
     0.0000   0.0000   0.0000   0.0000   0.0000   0.0000   0.0000   0.0000
     0.0000   0.0000   0.0000   0.0000   0.0000   0.0000   0.0000   0.0000
     0.0000   0.0000   0.0000   0.0000   0.0000   0.0000   0.0000   0.0000
     0.0000   0.0000   0.0000   0.0000   0.0000   0.0000   0.0000   0.0000
     0.0000   0.0000   0.0000   0.0000

          k = 0.1667 0.2887 0.0000 (126343 PWs)   bands (ev):

   -60.2528 -60.2431 -60.2431 -60.2353 -60.2353 -60.2294 -60.2294 -60.2243
   -60.2209 -60.2209 -60.2196 -60.2196 -60.2178 -60.2166 -60.2165 -60.2150
   -34.5387 -34.5313 -34.5313 -34.4961 -34.4961 -34.4826 -34.4826 -34.4765
   -34.4520 -34.4372 -34.4372 -34.3839 -34.3779 -34.3742 -34.3742 -34.3585
   -34.3585 -34.3442 -34.3442 -34.3429 -34.3429 -34.3308 -34.3308 -34.3207
   -34.3139 -34.3138 -34.3112 -34.3112 -34.3076 -34.3050 -34.3050 -34.3044
   -34.3044 -34.3018 -34.3017 -34.3017 -34.2936 -34.2844 -34.2697 -34.2697
   -34.2464 -34.2464 -34.2366 -34.2366 -34.2133 -34.2133 -34.2040 -34.1897
   -13.3389 -12.9135 -12.9135 -12.5417 -12.5417 -12.2300 -12.2300 -12.0763
   -11.9544 -11.9027 -11.9027 -11.7514 -11.7514 -11.7506 -11.7506 -11.6557
   -11.6557 -11.6279 -11.6278 -11.5416 -11.5076 -11.4791 -11.4791 -11.4255
   -11.4254 -11.4058 -11.4058 -11.3808 -11.3572 -11.3066 -11.3066 -11.2559
    -4.9839  -4.9722  -4.9722  -4.8455  -4.6015  -4.5444  -4.5444  -4.4970
    -4.4970  -4.4583  -4.4583  -4.4338  -4.4338  -4.4098  -4.4098  -4.3953
    -4.2812  -4.2812  -4.2168  -4.1792  -4.0231  -4.0231  -3.9815  -3.9815
    -3.6683  -3.3625  -3.3606  -3.3606  -3.3430  -3.3430  -3.2232  -3.2232
    -3.1655  -3.1655  -3.1427  -3.1427  -3.0856  -3.0856  -3.0753  -3.0326
    -2.8875  -2.8875  -2.8704  -2.8704  -2.7545  -2.6468  -2.5853  -2.5853
    -2.5175  -2.4792  -2.4792  -2.4676  -2.4676  -2.4114  -2.4114  -2.3414
    -2.1879  -2.1879  -2.1445  -2.1437  -2.1437  -2.1375  -2.1375  -1.8932
    -1.6840  -1.6736  -1.6736  -1.6114  -1.6114  -1.5160  -1.4691  -1.4691
    -1.3090  -1.2191  -1.2191  -1.1833  -1.1547  -1.1547  -1.1516  -1.1516
    -1.0034  -0.9073  -0.9073  -0.8691  -0.8691  -0.8358  -0.8336  -0.8335
    -0.6330  -0.5604  -0.5604  -0.5570  -0.4757  -0.4757  -0.4068  -0.4068
    -0.2559  -0.2559  -0.1042  -0.0734  -0.0734  -0.0024  -0.0024   0.0074
     0.0074   0.1856   0.2646   0.2646   0.2819   0.2819   0.4507   0.6323
     2.4879   2.6964   2.6964   2.7134   2.7134   2.7219   2.7922   2.7922
     2.8433   2.8433   2.8536   2.8536   2.8660   2.8660   2.8760   2.9957
     2.9957   3.0565   3.0565   3.1749   3.1749   3.1773   3.2135   3.2135
     3.2427   3.2427   3.2780   3.2961   3.2961   3.3704   3.3704   3.4220
     3.4322   3.5287   3.5538   3.5637   3.6558   3.6558   3.7630   3.8243
     3.8243   3.8439   3.8439   3.9005   3.9005   3.9435   4.1404   4.1404
     4.4373   4.4373   4.5735   4.5735

     occupation numbers 
     1.0000   1.0000   1.0000   1.0000   1.0000   1.0000   1.0000   1.0000
     1.0000   1.0000   1.0000   1.0000   1.0000   1.0000   1.0000   1.0000
     1.0000   1.0000   1.0000   1.0000   1.0000   1.0000   1.0000   1.0000
     1.0000   1.0000   1.0000   1.0000   1.0000   1.0000   1.0000   1.0000
     1.0000   1.0000   1.0000   1.0000   1.0000   1.0000   1.0000   1.0000
     1.0000   1.0000   1.0000   1.0000   1.0000   1.0000   1.0000   1.0000
     1.0000   1.0000   1.0000   1.0000   1.0000   1.0000   1.0000   1.0000
     1.0000   1.0000   1.0000   1.0000   1.0000   1.0000   1.0000   1.0000
     1.0000   1.0000   1.0000   1.0000   1.0000   1.0000   1.0000   1.0000
     1.0000   1.0000   1.0000   1.0000   1.0000   1.0000   1.0000   1.0000
     1.0000   1.0000   1.0000   1.0000   1.0000   1.0000   1.0000   1.0000
     1.0000   1.0000   1.0000   1.0000   1.0000   1.0000   1.0000   1.0000
     1.0000   1.0000   1.0000   1.0000   1.0000   1.0000   1.0000   1.0000
     1.0000   1.0000   1.0000   1.0000   1.0000   1.0000   1.0000   1.0000
     1.0000   1.0000   1.0000   1.0000   1.0000   1.0000   1.0000   1.0000
     1.0000   1.0000   1.0000   1.0000   1.0000   1.0000   1.0000   1.0000
     1.0000   1.0000   1.0000   1.0000   1.0000   1.0000   1.0000   1.0000
     1.0000   1.0000   1.0000   1.0000   1.0000   1.0000   1.0000   1.0000
     1.0000   1.0000   1.0000   1.0000   1.0000   1.0000   1.0000   1.0000
     1.0000   1.0000   1.0000   1.0000   1.0000   1.0000   1.0000   1.0000
     1.0000   1.0000   1.0000   1.0000   1.0000   1.0000   1.0000   1.0000
     1.0000   1.0000   1.0000   1.0000   1.0000   1.0000   1.0000   1.0000
     1.0000   1.0000   1.0000   1.0000   1.0000   1.0000   1.0000   1.0000
     1.0000   1.0000   1.0000   1.0000   1.0000   1.0000   1.0000   1.0000
     1.0000   1.0000   1.0000   1.0000   1.0000   1.0000   1.0000   1.0000
     1.0000   1.0000   1.0000   1.0000   1.0000   1.0000   1.0000   1.0000
     0.0000   0.0000   0.0000   0.0000   0.0000   0.0000   0.0000   0.0000
     0.0000   0.0000   0.0000   0.0000   0.0000   0.0000   0.0000   0.0000
     0.0000   0.0000   0.0000   0.0000   0.0000   0.0000   0.0000   0.0000
     0.0000   0.0000   0.0000   0.0000   0.0000   0.0000   0.0000   0.0000
     0.0000   0.0000   0.0000   0.0000   0.0000   0.0000   0.0000   0.0000
     0.0000   0.0000   0.0000   0.0000   0.0000   0.0000   0.0000   0.0000
     0.0000   0.0000   0.0000   0.0000

          k = 0.1667 0.3368 0.0000 (126330 PWs)   bands (ev):

   -60.2523 -60.2441 -60.2434 -60.2356 -60.2344 -60.2287 -60.2283 -60.2252
   -60.2216 -60.2209 -60.2201 -60.2198 -60.2177 -60.2166 -60.2162 -60.2147
   -34.5366 -34.5281 -34.5266 -34.5002 -34.4978 -34.4865 -34.4806 -34.4743
   -34.4476 -34.4465 -34.4424 -34.3892 -34.3812 -34.3769 -34.3706 -34.3606
   -34.3591 -34.3466 -34.3434 -34.3411 -34.3393 -34.3295 -34.3287 -34.3225
   -34.3152 -34.3137 -34.3122 -34.3115 -34.3073 -34.3052 -34.3044 -34.3013
   -34.3011 -34.2980 -34.2979 -34.2910 -34.2884 -34.2883 -34.2713 -34.2686
   -34.2494 -34.2490 -34.2404 -34.2372 -34.2130 -34.2107 -34.2090 -34.1909
   -13.3185 -12.9623 -12.9287 -12.5545 -12.4976 -12.1934 -12.1713 -12.0679
   -12.0047 -11.9226 -11.9088 -11.7908 -11.7563 -11.7457 -11.7333 -11.6869
   -11.6656 -11.6130 -11.6047 -11.5339 -11.5287 -11.4818 -11.4574 -11.4431
   -11.4247 -11.4176 -11.4086 -11.3645 -11.3523 -11.3095 -11.2974 -11.2481
    -4.9569  -4.9450  -4.9420  -4.8225  -4.6294  -4.5777  -4.5503  -4.5395
    -4.5028  -4.4966  -4.4744  -4.4710  -4.4434  -4.4416  -4.3962  -4.3785
    -4.2767  -4.2727  -4.1997  -4.1740  -4.0175  -3.9898  -3.9837  -3.9184
    -3.5872  -3.4332  -3.3998  -3.3538  -3.3305  -3.3290  -3.2249  -3.2186
    -3.1750  -3.1728  -3.1700  -3.1574  -3.1192  -3.1142  -3.1004  -3.0523
    -2.9290  -2.8494  -2.8466  -2.8060  -2.7883  -2.6442  -2.5821  -2.5735
    -2.5162  -2.4797  -2.4717  -2.4661  -2.4492  -2.3737  -2.3321  -2.3140
    -2.2394  -2.2239  -2.2236  -2.1880  -2.1817  -2.1444  -2.0343  -1.8722
    -1.6271  -1.6206  -1.5887  -1.5830  -1.5790  -1.5544  -1.5159  -1.4882
    -1.3448  -1.2471  -1.2200  -1.1882  -1.1817  -1.1576  -1.1377  -1.1369
    -1.0391  -0.9335  -0.9266  -0.8934  -0.8704  -0.8700  -0.8479  -0.8275
    -0.6394  -0.5970  -0.5799  -0.5181  -0.4663  -0.4301  -0.3883  -0.3737
    -0.2623  -0.2459  -0.1210  -0.0976  -0.0587  -0.0324  -0.0191   0.0085
     0.0124   0.2040   0.2801   0.2819   0.3150   0.3153   0.4876   0.6202
     2.4458   2.6718   2.6805   2.6865   2.6913   2.7286   2.7725   2.7953
     2.8296   2.8475   2.8484   2.8561   2.8702   2.8725   2.8966   3.0091
     3.0210   3.0638   3.0674   3.1682   3.1824   3.1844   3.1884   3.2081
     3.2156   3.2422   3.2546   3.2694   3.2865   3.3215   3.3710   3.3844
     3.4387   3.5307   3.5333   3.5650   3.6408   3.7047   3.7577   3.8263
     3.8469   3.8744   3.9057   3.9165   3.9442   3.9936   4.0835   4.1369
     4.4049   4.4164   4.5472   4.5818

     occupation numbers 
     1.0000   1.0000   1.0000   1.0000   1.0000   1.0000   1.0000   1.0000
     1.0000   1.0000   1.0000   1.0000   1.0000   1.0000   1.0000   1.0000
     1.0000   1.0000   1.0000   1.0000   1.0000   1.0000   1.0000   1.0000
     1.0000   1.0000   1.0000   1.0000   1.0000   1.0000   1.0000   1.0000
     1.0000   1.0000   1.0000   1.0000   1.0000   1.0000   1.0000   1.0000
     1.0000   1.0000   1.0000   1.0000   1.0000   1.0000   1.0000   1.0000
     1.0000   1.0000   1.0000   1.0000   1.0000   1.0000   1.0000   1.0000
     1.0000   1.0000   1.0000   1.0000   1.0000   1.0000   1.0000   1.0000
     1.0000   1.0000   1.0000   1.0000   1.0000   1.0000   1.0000   1.0000
     1.0000   1.0000   1.0000   1.0000   1.0000   1.0000   1.0000   1.0000
     1.0000   1.0000   1.0000   1.0000   1.0000   1.0000   1.0000   1.0000
     1.0000   1.0000   1.0000   1.0000   1.0000   1.0000   1.0000   1.0000
     1.0000   1.0000   1.0000   1.0000   1.0000   1.0000   1.0000   1.0000
     1.0000   1.0000   1.0000   1.0000   1.0000   1.0000   1.0000   1.0000
     1.0000   1.0000   1.0000   1.0000   1.0000   1.0000   1.0000   1.0000
     1.0000   1.0000   1.0000   1.0000   1.0000   1.0000   1.0000   1.0000
     1.0000   1.0000   1.0000   1.0000   1.0000   1.0000   1.0000   1.0000
     1.0000   1.0000   1.0000   1.0000   1.0000   1.0000   1.0000   1.0000
     1.0000   1.0000   1.0000   1.0000   1.0000   1.0000   1.0000   1.0000
     1.0000   1.0000   1.0000   1.0000   1.0000   1.0000   1.0000   1.0000
     1.0000   1.0000   1.0000   1.0000   1.0000   1.0000   1.0000   1.0000
     1.0000   1.0000   1.0000   1.0000   1.0000   1.0000   1.0000   1.0000
     1.0000   1.0000   1.0000   1.0000   1.0000   1.0000   1.0000   1.0000
     1.0000   1.0000   1.0000   1.0000   1.0000   1.0000   1.0000   1.0000
     1.0000   1.0000   1.0000   1.0000   1.0000   1.0000   1.0000   1.0000
     1.0000   1.0000   1.0000   1.0000   1.0000   1.0000   1.0000   1.0000
     0.0000   0.0000   0.0000   0.0000   0.0000   0.0000   0.0000   0.0000
     0.0000   0.0000   0.0000   0.0000   0.0000   0.0000   0.0000   0.0000
     0.0000   0.0000   0.0000   0.0000   0.0000   0.0000   0.0000   0.0000
     0.0000   0.0000   0.0000   0.0000   0.0000   0.0000   0.0000   0.0000
     0.0000   0.0000   0.0000   0.0000   0.0000   0.0000   0.0000   0.0000
     0.0000   0.0000   0.0000   0.0000   0.0000   0.0000   0.0000   0.0000
     0.0000   0.0000   0.0000   0.0000

          k = 0.1667 0.3849 0.0000 (126340 PWs)   bands (ev):

   -60.2517 -60.2452 -60.2437 -60.2358 -60.2335 -60.2280 -60.2273 -60.2261
   -60.2223 -60.2208 -60.2207 -60.2199 -60.2176 -60.2167 -60.2159 -60.2145
   -34.5342 -34.5246 -34.5213 -34.5045 -34.4992 -34.4907 -34.4783 -34.4721
   -34.4577 -34.4475 -34.4407 -34.3940 -34.3882 -34.3758 -34.3675 -34.3627
   -34.3597 -34.3485 -34.3438 -34.3393 -34.3340 -34.3281 -34.3266 -34.3243
   -34.3166 -34.3136 -34.3133 -34.3118 -34.3070 -34.3053 -34.3038 -34.3009
   -34.2977 -34.2947 -34.2926 -34.2919 -34.2832 -34.2806 -34.2732 -34.2672
   -34.2528 -34.2515 -34.2445 -34.2378 -34.2146 -34.2128 -34.2082 -34.1922
   -13.2952 -13.0090 -12.9411 -12.5651 -12.4521 -12.1556 -12.1135 -12.0584
   -12.0554 -11.9416 -11.9139 -11.8315 -11.7604 -11.7400 -11.7222 -11.7145
   -11.6754 -11.5975 -11.5820 -11.5499 -11.5267 -11.4850 -11.4608 -11.4395
   -11.4309 -11.4239 -11.4111 -11.3509 -11.3475 -11.3127 -11.2897 -11.2416
    -4.9260  -4.9146  -4.9079  -4.7965  -4.6525  -4.6136  -4.5845  -4.5531
    -4.5496  -4.5099  -4.4956  -4.4896  -4.4679  -4.4514  -4.3808  -4.3616
    -4.2753  -4.2657  -4.2208  -4.1327  -4.0126  -3.9862  -3.9517  -3.8561
    -3.5058  -3.5035  -3.4404  -3.3435  -3.3163  -3.3142  -3.2275  -3.2122
    -3.2003  -3.1943  -3.1797  -3.1687  -3.1503  -3.1423  -3.1153  -3.0734
    -2.9735  -2.8316  -2.8093  -2.8077  -2.7397  -2.6365  -2.5732  -2.5609
    -2.5138  -2.4822  -2.4763  -2.4511  -2.4330  -2.3392  -2.3007  -2.2916
    -2.2892  -2.2571  -2.2534  -2.2367  -2.2193  -2.1491  -1.9269  -1.8482
    -1.6524  -1.6458  -1.5612  -1.5579  -1.5044  -1.4982  -1.4972  -1.4879
    -1.3766  -1.2709  -1.2282  -1.2169  -1.1800  -1.1605  -1.1210  -1.1199
    -1.0791  -1.0360  -0.9571  -0.9195  -0.9059  -0.8347  -0.8306  -0.8201
    -0.7252  -0.6018  -0.5644  -0.4818  -0.4600  -0.3902  -0.3751  -0.3429
    -0.2606  -0.2306  -0.1348  -0.1182  -0.0641  -0.0464  -0.0446   0.0174
     0.0175   0.2197   0.2779   0.2962   0.3447   0.3624   0.5203   0.6054
     2.4083   2.6497   2.6620   2.6638   2.6671   2.7451   2.7567   2.7988
     2.8112   2.8427   2.8516   2.8586   2.8661   2.8740   2.9322   3.0266
     3.0452   3.0729   3.0761   3.1539   3.1593   3.1699   3.1916   3.1943
     3.2312   3.2410   3.2422   3.2423   3.2774   3.2789   3.3331   3.3738
     3.4573   3.5046   3.5048   3.6057   3.6239   3.7472   3.7531   3.8281
     3.8471   3.9296   3.9298   3.9663   3.9934   4.0262   4.0364   4.1356
     4.3688   4.3859   4.4940   4.5893

     occupation numbers 
     1.0000   1.0000   1.0000   1.0000   1.0000   1.0000   1.0000   1.0000
     1.0000   1.0000   1.0000   1.0000   1.0000   1.0000   1.0000   1.0000
     1.0000   1.0000   1.0000   1.0000   1.0000   1.0000   1.0000   1.0000
     1.0000   1.0000   1.0000   1.0000   1.0000   1.0000   1.0000   1.0000
     1.0000   1.0000   1.0000   1.0000   1.0000   1.0000   1.0000   1.0000
     1.0000   1.0000   1.0000   1.0000   1.0000   1.0000   1.0000   1.0000
     1.0000   1.0000   1.0000   1.0000   1.0000   1.0000   1.0000   1.0000
     1.0000   1.0000   1.0000   1.0000   1.0000   1.0000   1.0000   1.0000
     1.0000   1.0000   1.0000   1.0000   1.0000   1.0000   1.0000   1.0000
     1.0000   1.0000   1.0000   1.0000   1.0000   1.0000   1.0000   1.0000
     1.0000   1.0000   1.0000   1.0000   1.0000   1.0000   1.0000   1.0000
     1.0000   1.0000   1.0000   1.0000   1.0000   1.0000   1.0000   1.0000
     1.0000   1.0000   1.0000   1.0000   1.0000   1.0000   1.0000   1.0000
     1.0000   1.0000   1.0000   1.0000   1.0000   1.0000   1.0000   1.0000
     1.0000   1.0000   1.0000   1.0000   1.0000   1.0000   1.0000   1.0000
     1.0000   1.0000   1.0000   1.0000   1.0000   1.0000   1.0000   1.0000
     1.0000   1.0000   1.0000   1.0000   1.0000   1.0000   1.0000   1.0000
     1.0000   1.0000   1.0000   1.0000   1.0000   1.0000   1.0000   1.0000
     1.0000   1.0000   1.0000   1.0000   1.0000   1.0000   1.0000   1.0000
     1.0000   1.0000   1.0000   1.0000   1.0000   1.0000   1.0000   1.0000
     1.0000   1.0000   1.0000   1.0000   1.0000   1.0000   1.0000   1.0000
     1.0000   1.0000   1.0000   1.0000   1.0000   1.0000   1.0000   1.0000
     1.0000   1.0000   1.0000   1.0000   1.0000   1.0000   1.0000   1.0000
     1.0000   1.0000   1.0000   1.0000   1.0000   1.0000   1.0000   1.0000
     1.0000   1.0000   1.0000   1.0000   1.0000   1.0000   1.0000   1.0000
     1.0000   1.0000   1.0000   1.0000   1.0000   1.0000   1.0000   1.0000
     0.0000   0.0000   0.0000   0.0000   0.0000   0.0000   0.0000   0.0000
     0.0000   0.0000   0.0000   0.0000   0.0000   0.0000   0.0000   0.0000
     0.0000   0.0000   0.0000   0.0000   0.0000   0.0000   0.0000   0.0000
     0.0000   0.0000   0.0000   0.0000   0.0000   0.0000   0.0000   0.0000
     0.0000   0.0000   0.0000   0.0000   0.0000   0.0000   0.0000   0.0000
     0.0000   0.0000   0.0000   0.0000   0.0000   0.0000   0.0000   0.0000
     0.0000   0.0000   0.0000   0.0000

          k = 0.1667 0.4330 0.0000 (126388 PWs)   bands (ev):

   -60.2511 -60.2462 -60.2439 -60.2360 -60.2326 -60.2273 -60.2270 -60.2263
   -60.2230 -60.2213 -60.2207 -60.2201 -60.2174 -60.2168 -60.2157 -60.2143
   -34.5314 -34.5209 -34.5153 -34.5087 -34.5003 -34.4950 -34.4756 -34.4701
   -34.4674 -34.4524 -34.4347 -34.3979 -34.3952 -34.3746 -34.3650 -34.3647
   -34.3601 -34.3500 -34.3441 -34.3374 -34.3286 -34.3267 -34.3262 -34.3246
   -34.3180 -34.3146 -34.3134 -34.3121 -34.3068 -34.3055 -34.3034 -34.3006
   -34.2971 -34.2942 -34.2921 -34.2859 -34.2780 -34.2754 -34.2706 -34.2657
   -34.2565 -34.2539 -34.2488 -34.2383 -34.2208 -34.2127 -34.2058 -34.1937
   -13.2689 -13.0536 -12.9509 -12.5733 -12.4052 -12.1169 -12.1063 -12.0570
   -12.0476 -11.9598 -11.9178 -11.8726 -11.7636 -11.7612 -11.7337 -11.6952
   -11.6849 -11.5816 -11.5712 -11.5598 -11.5198 -11.4886 -11.4786 -11.4457
   -11.4254 -11.4229 -11.4134 -11.3426 -11.3403 -11.3163 -11.2837 -11.2365
    -4.8915  -4.8816  -4.8705  -4.7675  -4.6706  -4.6516  -4.6310  -4.5977
    -4.5530  -4.5495  -4.5038  -4.4945  -4.4884  -4.4577  -4.3639  -4.3448
    -4.2772  -4.2601  -4.2423  -4.0950  -4.0083  -3.9888  -3.9092  -3.7952
    -3.5713  -3.4830  -3.4253  -3.3317  -3.3004  -3.2991  -3.2318  -3.2253
    -3.2170  -3.2146  -3.2041  -3.1795  -3.1694  -3.1444  -3.1301  -3.0949
    -3.0220  -2.8216  -2.8172  -2.7724  -2.6723  -2.6229  -2.5582  -2.5480
    -2.5105  -2.4867  -2.4812  -2.4340  -2.4194  -2.3719  -2.3428  -2.3094
    -2.2901  -2.2885  -2.2680  -2.2543  -2.1754  -2.1523  -1.8212  -1.8165
    -1.7237  -1.6646  -1.6049  -1.5174  -1.4974  -1.4400  -1.4036  -1.4033
    -1.4009  -1.2899  -1.2445  -1.2402  -1.1781  -1.1634  -1.1424  -1.1231
    -1.1016  -1.1007  -0.9977  -0.9469  -0.9396  -0.8173  -0.8162  -0.8127
    -0.8011  -0.6259  -0.5357  -0.4573  -0.4493  -0.3676  -0.3573  -0.3166
    -0.2515  -0.2113  -0.1456  -0.1347  -0.0967  -0.0694  -0.0367   0.0220
     0.0242   0.2329   0.2749   0.3075   0.3690   0.4062   0.5475   0.5877
     2.3771   2.6314   2.6410   2.6414   2.6565   2.7457   2.7625   2.7913
     2.8027   2.8366   2.8554   2.8568   2.8607   2.8772   2.9725   3.0473
     3.0680   3.0827   3.0834   3.1297   3.1500   3.1579   3.1764   3.1970
     3.2089   3.2117   3.2428   3.2442   3.2691   3.2770   3.2796   3.3791
     3.4766   3.4773   3.4779   3.6053   3.6502   3.7494   3.7819   3.8298
     3.8454   3.9402   3.9690   3.9889   4.0254   4.0474   4.0709   4.1357
     4.3290   4.3453   4.4316   4.5956

     occupation numbers 
     1.0000   1.0000   1.0000   1.0000   1.0000   1.0000   1.0000   1.0000
     1.0000   1.0000   1.0000   1.0000   1.0000   1.0000   1.0000   1.0000
     1.0000   1.0000   1.0000   1.0000   1.0000   1.0000   1.0000   1.0000
     1.0000   1.0000   1.0000   1.0000   1.0000   1.0000   1.0000   1.0000
     1.0000   1.0000   1.0000   1.0000   1.0000   1.0000   1.0000   1.0000
     1.0000   1.0000   1.0000   1.0000   1.0000   1.0000   1.0000   1.0000
     1.0000   1.0000   1.0000   1.0000   1.0000   1.0000   1.0000   1.0000
     1.0000   1.0000   1.0000   1.0000   1.0000   1.0000   1.0000   1.0000
     1.0000   1.0000   1.0000   1.0000   1.0000   1.0000   1.0000   1.0000
     1.0000   1.0000   1.0000   1.0000   1.0000   1.0000   1.0000   1.0000
     1.0000   1.0000   1.0000   1.0000   1.0000   1.0000   1.0000   1.0000
     1.0000   1.0000   1.0000   1.0000   1.0000   1.0000   1.0000   1.0000
     1.0000   1.0000   1.0000   1.0000   1.0000   1.0000   1.0000   1.0000
     1.0000   1.0000   1.0000   1.0000   1.0000   1.0000   1.0000   1.0000
     1.0000   1.0000   1.0000   1.0000   1.0000   1.0000   1.0000   1.0000
     1.0000   1.0000   1.0000   1.0000   1.0000   1.0000   1.0000   1.0000
     1.0000   1.0000   1.0000   1.0000   1.0000   1.0000   1.0000   1.0000
     1.0000   1.0000   1.0000   1.0000   1.0000   1.0000   1.0000   1.0000
     1.0000   1.0000   1.0000   1.0000   1.0000   1.0000   1.0000   1.0000
     1.0000   1.0000   1.0000   1.0000   1.0000   1.0000   1.0000   1.0000
     1.0000   1.0000   1.0000   1.0000   1.0000   1.0000   1.0000   1.0000
     1.0000   1.0000   1.0000   1.0000   1.0000   1.0000   1.0000   1.0000
     1.0000   1.0000   1.0000   1.0000   1.0000   1.0000   1.0000   1.0000
     1.0000   1.0000   1.0000   1.0000   1.0000   1.0000   1.0000   1.0000
     1.0000   1.0000   1.0000   1.0000   1.0000   1.0000   1.0000   1.0000
     1.0000   1.0000   1.0000   1.0000   1.0000   1.0000   1.0000   1.0000
     0.0000   0.0000   0.0000   0.0000   0.0000   0.0000   0.0000   0.0000
     0.0000   0.0000   0.0000   0.0000   0.0000   0.0000   0.0000   0.0000
     0.0000   0.0000   0.0000   0.0000   0.0000   0.0000   0.0000   0.0000
     0.0000   0.0000   0.0000   0.0000   0.0000   0.0000   0.0000   0.0000
     0.0000   0.0000   0.0000   0.0000   0.0000   0.0000   0.0000   0.0000
     0.0000   0.0000   0.0000   0.0000   0.0000   0.0000   0.0000   0.0000
     0.0000   0.0000   0.0000   0.0000

          k = 0.1667 0.4811 0.0000 (126406 PWs)   bands (ev):

   -60.2504 -60.2471 -60.2440 -60.2361 -60.2317 -60.2280 -60.2266 -60.2253
   -60.2237 -60.2220 -60.2206 -60.2202 -60.2173 -60.2169 -60.2156 -60.2142
   -34.5282 -34.5169 -34.5130 -34.5087 -34.5010 -34.4995 -34.4766 -34.4726
   -34.4685 -34.4570 -34.4285 -34.4021 -34.4010 -34.3732 -34.3666 -34.3631
   -34.3604 -34.3511 -34.3444 -34.3356 -34.3280 -34.3252 -34.3231 -34.3227
   -34.3194 -34.3160 -34.3132 -34.3123 -34.3065 -34.3056 -34.3031 -34.3019
   -34.3003 -34.2907 -34.2902 -34.2803 -34.2780 -34.2728 -34.2641 -34.2611
   -34.2606 -34.2562 -34.2533 -34.2386 -34.2277 -34.2127 -34.2034 -34.1954
   -13.2397 -13.0959 -12.9578 -12.5792 -12.3572 -12.1573 -12.0773 -12.0357
   -12.0020 -11.9770 -11.9206 -11.9139 -11.8037 -11.7658 -11.7269 -11.6941
   -11.6754 -11.5924 -11.5652 -11.5384 -11.5135 -11.4963 -11.4926 -11.4619
   -11.4218 -11.4154 -11.4152 -11.3378 -11.3327 -11.3201 -11.2794 -11.2328
    -4.8536  -4.8461  -4.8299  -4.7359  -4.6908  -4.6836  -4.6779  -4.6462
    -4.5891  -4.5503  -4.5167  -4.5031  -4.4935  -4.4623  -4.3457  -4.3288
    -4.2822  -4.2638  -4.2561  -4.0641  -4.0044  -3.9915  -3.8623  -3.7363
    -3.6362  -3.5280  -3.3467  -3.3184  -3.2843  -3.2828  -3.2574  -3.2478
    -3.2383  -3.2297  -3.1953  -3.1946  -3.1746  -3.1446  -3.1399  -3.1157
    -3.0756  -2.8285  -2.8068  -2.7432  -2.6047  -2.6025  -2.5369  -2.5352
    -2.5065  -2.4932  -2.4864  -2.4360  -2.4148  -2.4093  -2.3914  -2.3476
    -2.3179  -2.2860  -2.2836  -2.2518  -2.1543  -2.0980  -1.7965  -1.7914
    -1.7041  -1.6809  -1.6467  -1.5269  -1.4404  -1.4235  -1.3833  -1.3186
    -1.3061  -1.3038  -1.2689  -1.2573  -1.2519  -1.1761  -1.1705  -1.1663
    -1.0798  -1.0792  -1.0475  -0.9749  -0.9716  -0.9110  -0.8080  -0.8064
    -0.7690  -0.6519  -0.5112  -0.4589  -0.4214  -0.3662  -0.3329  -0.2966
    -0.2358  -0.1894  -0.1533  -0.1468  -0.1290  -0.0938  -0.0296   0.0260
     0.0286   0.2439   0.2711   0.3156   0.3872   0.4462   0.5668   0.5680
     2.3536   2.6179   2.6238   2.6257   2.6488   2.7399   2.7724   2.7803
     2.8072   2.8303   2.8450   2.8586   2.8623   2.8796   3.0172   3.0709
     3.0874   3.0893   3.0947   3.1114   3.1400   3.1526   3.1602   3.1821
     3.1890   3.2006   3.2184   3.2249   3.2443   3.2617   3.3119   3.3875
     3.4462   3.4537   3.4985   3.5853   3.6980   3.7466   3.8076   3.8318
     3.8428   3.9121   3.9477   4.0511   4.0826   4.0963   4.1057   4.1363
     4.2858   4.2956   4.3656   4.6004

     occupation numbers 
     1.0000   1.0000   1.0000   1.0000   1.0000   1.0000   1.0000   1.0000
     1.0000   1.0000   1.0000   1.0000   1.0000   1.0000   1.0000   1.0000
     1.0000   1.0000   1.0000   1.0000   1.0000   1.0000   1.0000   1.0000
     1.0000   1.0000   1.0000   1.0000   1.0000   1.0000   1.0000   1.0000
     1.0000   1.0000   1.0000   1.0000   1.0000   1.0000   1.0000   1.0000
     1.0000   1.0000   1.0000   1.0000   1.0000   1.0000   1.0000   1.0000
     1.0000   1.0000   1.0000   1.0000   1.0000   1.0000   1.0000   1.0000
     1.0000   1.0000   1.0000   1.0000   1.0000   1.0000   1.0000   1.0000
     1.0000   1.0000   1.0000   1.0000   1.0000   1.0000   1.0000   1.0000
     1.0000   1.0000   1.0000   1.0000   1.0000   1.0000   1.0000   1.0000
     1.0000   1.0000   1.0000   1.0000   1.0000   1.0000   1.0000   1.0000
     1.0000   1.0000   1.0000   1.0000   1.0000   1.0000   1.0000   1.0000
     1.0000   1.0000   1.0000   1.0000   1.0000   1.0000   1.0000   1.0000
     1.0000   1.0000   1.0000   1.0000   1.0000   1.0000   1.0000   1.0000
     1.0000   1.0000   1.0000   1.0000   1.0000   1.0000   1.0000   1.0000
     1.0000   1.0000   1.0000   1.0000   1.0000   1.0000   1.0000   1.0000
     1.0000   1.0000   1.0000   1.0000   1.0000   1.0000   1.0000   1.0000
     1.0000   1.0000   1.0000   1.0000   1.0000   1.0000   1.0000   1.0000
     1.0000   1.0000   1.0000   1.0000   1.0000   1.0000   1.0000   1.0000
     1.0000   1.0000   1.0000   1.0000   1.0000   1.0000   1.0000   1.0000
     1.0000   1.0000   1.0000   1.0000   1.0000   1.0000   1.0000   1.0000
     1.0000   1.0000   1.0000   1.0000   1.0000   1.0000   1.0000   1.0000
     1.0000   1.0000   1.0000   1.0000   1.0000   1.0000   1.0000   1.0000
     1.0000   1.0000   1.0000   1.0000   1.0000   1.0000   1.0000   1.0000
     1.0000   1.0000   1.0000   1.0000   1.0000   1.0000   1.0000   1.0000
     1.0000   1.0000   1.0000   1.0000   1.0000   1.0000   1.0000   1.0000
     0.0000   0.0000   0.0000   0.0000   0.0000   0.0000   0.0000   0.0000
     0.0000   0.0000   0.0000   0.0000   0.0000   0.0000   0.0000   0.0000
     0.0000   0.0000   0.0000   0.0000   0.0000   0.0000   0.0000   0.0000
     0.0000   0.0000   0.0000   0.0000   0.0000   0.0000   0.0000   0.0000
     0.0000   0.0000   0.0000   0.0000   0.0000   0.0000   0.0000   0.0000
     0.0000   0.0000   0.0000   0.0000   0.0000   0.0000   0.0000   0.0000
     0.0000   0.0000   0.0000   0.0000

          k = 0.1667 0.5292 0.0000 (126404 PWs)   bands (ev):

   -60.2497 -60.2480 -60.2441 -60.2361 -60.2308 -60.2289 -60.2259 -60.2244
   -60.2244 -60.2227 -60.2205 -60.2203 -60.2172 -60.2170 -60.2155 -60.2141
   -34.5248 -34.5171 -34.5127 -34.5040 -34.5015 -34.5015 -34.4854 -34.4691
   -34.4675 -34.4613 -34.4222 -34.4089 -34.4029 -34.3717 -34.3684 -34.3620
   -34.3606 -34.3518 -34.3445 -34.3337 -34.3299 -34.3238 -34.3209 -34.3208
   -34.3176 -34.3175 -34.3130 -34.3126 -34.3070 -34.3063 -34.3058 -34.3029
   -34.3002 -34.2891 -34.2873 -34.2809 -34.2749 -34.2677 -34.2650 -34.2623
   -34.2583 -34.2579 -34.2520 -34.2389 -34.2352 -34.2127 -34.2012 -34.1972
   -13.2077 -13.1357 -12.9620 -12.5827 -12.3082 -12.2081 -12.0371 -12.0227
   -11.9933 -11.9552 -11.9488 -11.9223 -11.8494 -11.7672 -11.7194 -11.7030
   -11.6551 -11.6136 -11.5484 -11.5177 -11.5139 -11.5076 -11.4972 -11.4794
   -11.4205 -11.4173 -11.4091 -11.3331 -11.3281 -11.3243 -11.2768 -11.2306
    -4.8128  -4.8088  -4.7867  -4.7306  -4.7243  -4.7019  -4.6943  -4.6915
    -4.6281  -4.5450  -4.5280  -4.5119  -4.4928  -4.4651  -4.3263  -4.3140
    -4.2903  -4.2852  -4.2537  -4.0435  -4.0008  -3.9944  -3.8114  -3.6981
    -3.6800  -3.5757  -3.3034  -3.2844  -3.2713  -3.2703  -3.2683  -3.2634
    -3.2469  -3.2391  -3.2196  -3.1837  -3.1651  -3.1585  -3.1372  -3.1350
    -3.1349  -2.8320  -2.8004  -2.7234  -2.5743  -2.5377  -2.5230  -2.5093
    -2.5019  -2.5016  -2.4916  -2.4914  -2.4360  -2.4084  -2.4030  -2.3937
    -2.3452  -2.3035  -2.2709  -2.2415  -2.1554  -2.0213  -1.8705  -1.7590
    -1.6919  -1.6864  -1.5905  -1.5326  -1.4361  -1.3879  -1.3636  -1.3276
    -1.3122  -1.3013  -1.2679  -1.2415  -1.2207  -1.2071  -1.1739  -1.1690
    -1.1052  -1.0557  -1.0555  -1.0085  -1.0027  -1.0016  -0.8025  -0.8022
    -0.7381  -0.6794  -0.4911  -0.4649  -0.3988  -0.3709  -0.3178  -0.2840
    -0.2146  -0.1662  -0.1601  -0.1575  -0.1545  -0.1180  -0.0254   0.0290
     0.0306   0.2530   0.2663   0.3205   0.3984   0.4822   0.5424   0.5808
     2.3390   2.6100   2.6128   2.6159   2.6441   2.7399   2.7568   2.7980
     2.8123   2.8240   2.8309   2.8610   2.8629   2.8811   3.0655   3.0902
     3.0966   3.1000   3.1064   3.1090   3.1294   3.1441   3.1527   3.1535
     3.1703   3.1725   3.2026   3.2026   3.2468   3.2555   3.3467   3.3992
     3.4142   3.4324   3.5204   3.5643   3.7449   3.7486   3.8234   3.8341
     3.8397   3.8562   3.9522   4.1118   4.1146   4.1369   4.1375   4.1676
     4.2390   4.2393   4.2986   4.6033

     occupation numbers 
     1.0000   1.0000   1.0000   1.0000   1.0000   1.0000   1.0000   1.0000
     1.0000   1.0000   1.0000   1.0000   1.0000   1.0000   1.0000   1.0000
     1.0000   1.0000   1.0000   1.0000   1.0000   1.0000   1.0000   1.0000
     1.0000   1.0000   1.0000   1.0000   1.0000   1.0000   1.0000   1.0000
     1.0000   1.0000   1.0000   1.0000   1.0000   1.0000   1.0000   1.0000
     1.0000   1.0000   1.0000   1.0000   1.0000   1.0000   1.0000   1.0000
     1.0000   1.0000   1.0000   1.0000   1.0000   1.0000   1.0000   1.0000
     1.0000   1.0000   1.0000   1.0000   1.0000   1.0000   1.0000   1.0000
     1.0000   1.0000   1.0000   1.0000   1.0000   1.0000   1.0000   1.0000
     1.0000   1.0000   1.0000   1.0000   1.0000   1.0000   1.0000   1.0000
     1.0000   1.0000   1.0000   1.0000   1.0000   1.0000   1.0000   1.0000
     1.0000   1.0000   1.0000   1.0000   1.0000   1.0000   1.0000   1.0000
     1.0000   1.0000   1.0000   1.0000   1.0000   1.0000   1.0000   1.0000
     1.0000   1.0000   1.0000   1.0000   1.0000   1.0000   1.0000   1.0000
     1.0000   1.0000   1.0000   1.0000   1.0000   1.0000   1.0000   1.0000
     1.0000   1.0000   1.0000   1.0000   1.0000   1.0000   1.0000   1.0000
     1.0000   1.0000   1.0000   1.0000   1.0000   1.0000   1.0000   1.0000
     1.0000   1.0000   1.0000   1.0000   1.0000   1.0000   1.0000   1.0000
     1.0000   1.0000   1.0000   1.0000   1.0000   1.0000   1.0000   1.0000
     1.0000   1.0000   1.0000   1.0000   1.0000   1.0000   1.0000   1.0000
     1.0000   1.0000   1.0000   1.0000   1.0000   1.0000   1.0000   1.0000
     1.0000   1.0000   1.0000   1.0000   1.0000   1.0000   1.0000   1.0000
     1.0000   1.0000   1.0000   1.0000   1.0000   1.0000   1.0000   1.0000
     1.0000   1.0000   1.0000   1.0000   1.0000   1.0000   1.0000   1.0000
     1.0000   1.0000   1.0000   1.0000   1.0000   1.0000   1.0000   1.0000
     1.0000   1.0000   1.0000   1.0000   1.0000   1.0000   1.0000   1.0000
     0.0000   0.0000   0.0000   0.0000   0.0000   0.0000   0.0000   0.0000
     0.0000   0.0000   0.0000   0.0000   0.0000   0.0000   0.0000   0.0000
     0.0000   0.0000   0.0000   0.0000   0.0000   0.0000   0.0000   0.0000
     0.0000   0.0000   0.0000   0.0000   0.0000   0.0000   0.0000   0.0000
     0.0000   0.0000   0.0000   0.0000   0.0000   0.0000   0.0000   0.0000
     0.0000   0.0000   0.0000   0.0000   0.0000   0.0000   0.0000   0.0000
     0.0000   0.0000   0.0000   0.0000

          k = 0.1667 0.5774 0.0000 (126363 PWs)   bands (ev):

   -60.2489 -60.2489 -60.2442 -60.2362 -60.2298 -60.2298 -60.2252 -60.2251
   -60.2236 -60.2235 -60.2204 -60.2204 -60.2171 -60.2171 -60.2155 -60.2141
   -34.5210 -34.5210 -34.5084 -34.5084 -34.5016 -34.4937 -34.4937 -34.4671
   -34.4654 -34.4654 -34.4156 -34.4156 -34.4036 -34.3701 -34.3701 -34.3617
   -34.3607 -34.3520 -34.3445 -34.3318 -34.3318 -34.3224 -34.3223 -34.3191
   -34.3191 -34.3128 -34.3128 -34.3123 -34.3122 -34.3061 -34.3060 -34.3028
   -34.3001 -34.2887 -34.2840 -34.2840 -34.2698 -34.2698 -34.2628 -34.2628
   -34.2604 -34.2604 -34.2433 -34.2433 -34.2390 -34.2127 -34.1992 -34.1992
   -13.1730 -13.1730 -12.9634 -12.5839 -12.2585 -12.2585 -12.0085 -12.0085
   -11.9963 -11.9963 -11.9229 -11.8978 -11.8978 -11.7677 -11.7114 -11.7114
   -11.6345 -11.6345 -11.5313 -11.5313 -11.5021 -11.5021 -11.4981 -11.4980
   -11.4190 -11.4190 -11.4070 -11.3286 -11.3286 -11.3266 -11.2759 -11.2298
    -4.7701  -4.7701  -4.7695  -4.7695  -4.7413  -4.7413  -4.6941  -4.6658
    -4.6658  -4.5375  -4.5375  -4.5149  -4.4925  -4.4660  -4.3061  -4.3061
    -4.3010  -4.3010  -4.2529  -4.0363  -3.9975  -3.9975  -3.7565  -3.7565
    -3.6264  -3.6264  -3.2939  -3.2867  -3.2867  -3.2577  -3.2577  -3.2424
    -3.2424  -3.2423  -3.2004  -3.2004  -3.1716  -3.1716  -3.1517  -3.1517
    -3.1363  -2.8331  -2.7982  -2.7163  -2.5375  -2.5375  -2.5117  -2.5116
    -2.4969  -2.4969  -2.4755  -2.4755  -2.4720  -2.4720  -2.4008  -2.3705
    -2.3704  -2.3107  -2.2657  -2.2380  -2.1558  -1.9455  -1.9455  -1.7239
    -1.7239  -1.6958  -1.5346  -1.4768  -1.4768  -1.4404  -1.3412  -1.3412
    -1.3151  -1.2732  -1.2732  -1.2714  -1.1716  -1.1716  -1.1701  -1.1701
    -1.1075  -1.1075  -1.0299  -1.0299  -1.0296  -1.0296  -0.8007  -0.8007
    -0.7082  -0.7082  -0.4757  -0.4757  -0.3818  -0.3818  -0.3127  -0.2797
    -0.1890  -0.1890  -0.1580  -0.1580  -0.1422  -0.1422  -0.0240   0.0307
     0.0307   0.2604   0.2604   0.3221   0.4022   0.5143   0.5143   0.5852
     2.3340   2.6082   2.6082   2.6126   2.6425   2.7456   2.7456   2.8150
     2.8150   2.8180   2.8180   2.8625   2.8625   2.8816   3.0911   3.0961
     3.1169   3.1169   3.1181   3.1181   3.1240   3.1241   3.1272   3.1272
     3.1604   3.1604   3.1972   3.2033   3.2505   3.2505   3.3809   3.3809
     3.4141   3.4141   3.5425   3.5425   3.7444   3.8015   3.8015   3.8288
     3.8368   3.8368   3.9537   4.1170   4.1371   4.1779   4.1779   4.1898
     4.1898   4.2322   4.2322   4.6043

     occupation numbers 
     1.0000   1.0000   1.0000   1.0000   1.0000   1.0000   1.0000   1.0000
     1.0000   1.0000   1.0000   1.0000   1.0000   1.0000   1.0000   1.0000
     1.0000   1.0000   1.0000   1.0000   1.0000   1.0000   1.0000   1.0000
     1.0000   1.0000   1.0000   1.0000   1.0000   1.0000   1.0000   1.0000
     1.0000   1.0000   1.0000   1.0000   1.0000   1.0000   1.0000   1.0000
     1.0000   1.0000   1.0000   1.0000   1.0000   1.0000   1.0000   1.0000
     1.0000   1.0000   1.0000   1.0000   1.0000   1.0000   1.0000   1.0000
     1.0000   1.0000   1.0000   1.0000   1.0000   1.0000   1.0000   1.0000
     1.0000   1.0000   1.0000   1.0000   1.0000   1.0000   1.0000   1.0000
     1.0000   1.0000   1.0000   1.0000   1.0000   1.0000   1.0000   1.0000
     1.0000   1.0000   1.0000   1.0000   1.0000   1.0000   1.0000   1.0000
     1.0000   1.0000   1.0000   1.0000   1.0000   1.0000   1.0000   1.0000
     1.0000   1.0000   1.0000   1.0000   1.0000   1.0000   1.0000   1.0000
     1.0000   1.0000   1.0000   1.0000   1.0000   1.0000   1.0000   1.0000
     1.0000   1.0000   1.0000   1.0000   1.0000   1.0000   1.0000   1.0000
     1.0000   1.0000   1.0000   1.0000   1.0000   1.0000   1.0000   1.0000
     1.0000   1.0000   1.0000   1.0000   1.0000   1.0000   1.0000   1.0000
     1.0000   1.0000   1.0000   1.0000   1.0000   1.0000   1.0000   1.0000
     1.0000   1.0000   1.0000   1.0000   1.0000   1.0000   1.0000   1.0000
     1.0000   1.0000   1.0000   1.0000   1.0000   1.0000   1.0000   1.0000
     1.0000   1.0000   1.0000   1.0000   1.0000   1.0000   1.0000   1.0000
     1.0000   1.0000   1.0000   1.0000   1.0000   1.0000   1.0000   1.0000
     1.0000   1.0000   1.0000   1.0000   1.0000   1.0000   1.0000   1.0000
     1.0000   1.0000   1.0000   1.0000   1.0000   1.0000   1.0000   1.0000
     1.0000   1.0000   1.0000   1.0000   1.0000   1.0000   1.0000   1.0000
     1.0000   1.0000   1.0000   1.0000   1.0000   1.0000   1.0000   1.0000
     0.0000   0.0000   0.0000   0.0000   0.0000   0.0000   0.0000   0.0000
     0.0000   0.0000   0.0000   0.0000   0.0000   0.0000   0.0000   0.0000
     0.0000   0.0000   0.0000   0.0000   0.0000   0.0000   0.0000   0.0000
     0.0000   0.0000   0.0000   0.0000   0.0000   0.0000   0.0000   0.0000
     0.0000   0.0000   0.0000   0.0000   0.0000   0.0000   0.0000   0.0000
     0.0000   0.0000   0.0000   0.0000   0.0000   0.0000   0.0000   0.0000
     0.0000   0.0000   0.0000   0.0000

          k = 0.2083 0.3608 0.0000 (126379 PWs)   bands (ev):

   -60.2518 -60.2445 -60.2444 -60.2347 -60.2347 -60.2276 -60.2276 -60.2261
   -60.2215 -60.2215 -60.2203 -60.2203 -60.2175 -60.2163 -60.2163 -60.2145
   -34.5345 -34.5232 -34.5232 -34.5020 -34.5020 -34.4847 -34.4847 -34.4714
   -34.4526 -34.4526 -34.4403 -34.3948 -34.3779 -34.3779 -34.3759 -34.3612
   -34.3612 -34.3415 -34.3415 -34.3412 -34.3412 -34.3274 -34.3274 -34.3243
   -34.3150 -34.3150 -34.3126 -34.3126 -34.3070 -34.3045 -34.3045 -34.3009
   -34.2949 -34.2949 -34.2927 -34.2875 -34.2875 -34.2834 -34.2700 -34.2700
   -34.2520 -34.2520 -34.2411 -34.2411 -34.2142 -34.2104 -34.2104 -34.1922
   -13.2967 -12.9763 -12.9763 -12.5090 -12.5090 -12.1353 -12.1353 -12.0590
   -12.0561 -11.9282 -11.9282 -11.7846 -11.7846 -11.7376 -11.7376 -11.6988
   -11.6988 -11.5900 -11.5900 -11.5501 -11.5242 -11.4615 -11.4615 -11.4419
   -11.4419 -11.4211 -11.4211 -11.3502 -11.3465 -11.3009 -11.3009 -11.2411
    -4.9281  -4.9133  -4.9133  -4.7982  -4.6543  -4.5841  -4.5841  -4.5421
    -4.5421  -4.5197  -4.5197  -4.4812  -4.4811  -4.4254  -4.4254  -4.3590
    -4.2665  -4.2665  -4.2237  -4.1256  -3.9814  -3.9814  -3.9233  -3.9233
    -3.5039  -3.4722  -3.4722  -3.3451  -3.3159  -3.3159  -3.2201  -3.2201
    -3.1967  -3.1967  -3.1684  -3.1684  -3.1658  -3.1271  -3.1271  -3.0717
    -2.8897  -2.8897  -2.8221  -2.7852  -2.7852  -2.6392  -2.5677  -2.5677
    -2.5137  -2.4674  -2.4674  -2.4558  -2.4558  -2.2965  -2.2965  -2.2874
    -2.2713  -2.2713  -2.2625  -2.2625  -2.2335  -2.0384  -2.0384  -1.8498
    -1.6472  -1.5681  -1.5681  -1.5637  -1.5331  -1.5331  -1.4946  -1.4946
    -1.3783  -1.2477  -1.2477  -1.1879  -1.1879  -1.1820  -1.1204  -1.1204
    -1.0787  -1.0350  -0.8954  -0.8954  -0.8757  -0.8757  -0.8651  -0.8651
    -0.6592  -0.6592  -0.5608  -0.4824  -0.4236  -0.4236  -0.3592  -0.3592
    -0.2454  -0.2453  -0.1349  -0.0850  -0.0850  -0.0223  -0.0223  -0.0146
    -0.0146   0.2228   0.3109   0.3109   0.3306   0.3306   0.5221   0.6064
     2.4052   2.6562   2.6562   2.6626   2.7052   2.7052   2.7789   2.7789
     2.8346   2.8346   2.8503   2.8503   2.8656   2.9035   2.9035   3.0347
     3.0347   3.0733   3.0733   3.1598   3.1618   3.1618   3.2152   3.2152
     3.2166   3.2166   3.2315   3.2587   3.2587   3.3245   3.3245   3.3367
     3.4609   3.4997   3.5061   3.6040   3.6857   3.6857   3.7504   3.8795
     3.8795   3.9086   3.9086   3.9615   3.9615   4.0392   4.0793   4.0793
     4.3782   4.3782   4.5010   4.6365

     occupation numbers 
     1.0000   1.0000   1.0000   1.0000   1.0000   1.0000   1.0000   1.0000
     1.0000   1.0000   1.0000   1.0000   1.0000   1.0000   1.0000   1.0000
     1.0000   1.0000   1.0000   1.0000   1.0000   1.0000   1.0000   1.0000
     1.0000   1.0000   1.0000   1.0000   1.0000   1.0000   1.0000   1.0000
     1.0000   1.0000   1.0000   1.0000   1.0000   1.0000   1.0000   1.0000
     1.0000   1.0000   1.0000   1.0000   1.0000   1.0000   1.0000   1.0000
     1.0000   1.0000   1.0000   1.0000   1.0000   1.0000   1.0000   1.0000
     1.0000   1.0000   1.0000   1.0000   1.0000   1.0000   1.0000   1.0000
     1.0000   1.0000   1.0000   1.0000   1.0000   1.0000   1.0000   1.0000
     1.0000   1.0000   1.0000   1.0000   1.0000   1.0000   1.0000   1.0000
     1.0000   1.0000   1.0000   1.0000   1.0000   1.0000   1.0000   1.0000
     1.0000   1.0000   1.0000   1.0000   1.0000   1.0000   1.0000   1.0000
     1.0000   1.0000   1.0000   1.0000   1.0000   1.0000   1.0000   1.0000
     1.0000   1.0000   1.0000   1.0000   1.0000   1.0000   1.0000   1.0000
     1.0000   1.0000   1.0000   1.0000   1.0000   1.0000   1.0000   1.0000
     1.0000   1.0000   1.0000   1.0000   1.0000   1.0000   1.0000   1.0000
     1.0000   1.0000   1.0000   1.0000   1.0000   1.0000   1.0000   1.0000
     1.0000   1.0000   1.0000   1.0000   1.0000   1.0000   1.0000   1.0000
     1.0000   1.0000   1.0000   1.0000   1.0000   1.0000   1.0000   1.0000
     1.0000   1.0000   1.0000   1.0000   1.0000   1.0000   1.0000   1.0000
     1.0000   1.0000   1.0000   1.0000   1.0000   1.0000   1.0000   1.0000
     1.0000   1.0000   1.0000   1.0000   1.0000   1.0000   1.0000   1.0000
     1.0000   1.0000   1.0000   1.0000   1.0000   1.0000   1.0000   1.0000
     1.0000   1.0000   1.0000   1.0000   1.0000   1.0000   1.0000   1.0000
     1.0000   1.0000   1.0000   1.0000   1.0000   1.0000   1.0000   1.0000
     1.0000   1.0000   1.0000   1.0000   1.0000   1.0000   1.0000   1.0000
     0.0000   0.0000   0.0000   0.0000   0.0000   0.0000   0.0000   0.0000
     0.0000   0.0000   0.0000   0.0000   0.0000   0.0000   0.0000   0.0000
     0.0000   0.0000   0.0000   0.0000   0.0000   0.0000   0.0000   0.0000
     0.0000   0.0000   0.0000   0.0000   0.0000   0.0000   0.0000   0.0000
     0.0000   0.0000   0.0000   0.0000   0.0000   0.0000   0.0000   0.0000
     0.0000   0.0000   0.0000   0.0000   0.0000   0.0000   0.0000   0.0000
     0.0000   0.0000   0.0000   0.0000

          k = 0.2083 0.4090 0.0000 (126365 PWs)   bands (ev):

   -60.2512 -60.2455 -60.2447 -60.2348 -60.2337 -60.2271 -60.2270 -60.2266
   -60.2222 -60.2214 -60.2209 -60.2205 -60.2174 -60.2164 -60.2161 -60.2143
   -34.5320 -34.5194 -34.5176 -34.5063 -34.5035 -34.4890 -34.4825 -34.4687
   -34.4624 -34.4573 -34.4340 -34.3997 -34.3852 -34.3751 -34.3747 -34.3633
   -34.3617 -34.3428 -34.3419 -34.3397 -34.3356 -34.3262 -34.3260 -34.3253
   -34.3164 -34.3148 -34.3137 -34.3129 -34.3066 -34.3047 -34.3040 -34.3005
   -34.2973 -34.2916 -34.2889 -34.2846 -34.2784 -34.2774 -34.2718 -34.2686
   -34.2554 -34.2545 -34.2453 -34.2417 -34.2200 -34.2102 -34.2079 -34.1936
   -13.2720 -13.0219 -12.9876 -12.5181 -12.4620 -12.1080 -12.0983 -12.0783
   -12.0489 -11.9468 -11.9328 -11.8240 -11.7776 -11.7411 -11.7358 -11.7183
   -11.7103 -11.5749 -11.5717 -11.5676 -11.5150 -11.4661 -11.4591 -11.4450
   -11.4405 -11.4352 -11.4244 -11.3407 -11.3387 -11.3049 -11.2940 -11.2355
    -4.8954  -4.8819  -4.8781  -4.7709  -4.6745  -4.6204  -4.5895  -4.5874
    -4.5667  -4.5439  -4.5352  -4.5201  -4.4894  -4.4489  -4.4073  -4.3398
    -4.2640  -4.2582  -4.2481  -4.0794  -3.9736  -3.9406  -3.9286  -3.8640
    -3.5421  -3.5127  -3.4205  -3.3350  -3.3010  -3.3006  -3.2231  -3.2209
    -3.2172  -3.2170  -3.2138  -3.1743  -3.1628  -3.1533  -3.1400  -3.0920
    -2.9366  -2.8530  -2.8430  -2.7681  -2.7195  -2.6291  -2.5561  -2.5527
    -2.5100  -2.4711  -2.4628  -2.4533  -2.4421  -2.3383  -2.3195  -2.3011
    -2.2993  -2.2838  -2.2647  -2.2638  -2.2201  -2.0410  -1.9288  -1.8246
    -1.7139  -1.5841  -1.5767  -1.5474  -1.5088  -1.5081  -1.4074  -1.4053
    -1.4045  -1.2706  -1.2554  -1.2132  -1.1875  -1.1824  -1.1406  -1.1229
    -1.1009  -1.1008  -0.9318  -0.9053  -0.9013  -0.8657  -0.8619  -0.8586
    -0.7448  -0.6811  -0.5281  -0.4492  -0.4208  -0.3873  -0.3504  -0.3329
    -0.2373  -0.2238  -0.1454  -0.1077  -0.0747  -0.0545  -0.0410  -0.0140
    -0.0104   0.2390   0.3058   0.3373   0.3432   0.3762   0.5518   0.5899
     2.3702   2.6351   2.6384   2.6435   2.6845   2.7252   2.7667   2.7861
     2.8178   2.8396   2.8436   2.8520   2.8553   2.9095   2.9413   3.0517
     3.0590   3.0808   3.0812   3.1380   3.1477   3.1511   3.1934   3.2087
     3.2153   3.2229   3.2300   3.2489   3.2499   3.2853   3.2862   3.3304
     3.4680   3.4789   3.4851   3.6471   3.6645   3.7237   3.7443   3.8841
     3.9087   3.9373   3.9693   3.9755   4.0115   4.0214   4.0771   4.0773
     4.3367   4.3423   4.4429   4.6440

     occupation numbers 
     1.0000   1.0000   1.0000   1.0000   1.0000   1.0000   1.0000   1.0000
     1.0000   1.0000   1.0000   1.0000   1.0000   1.0000   1.0000   1.0000
     1.0000   1.0000   1.0000   1.0000   1.0000   1.0000   1.0000   1.0000
     1.0000   1.0000   1.0000   1.0000   1.0000   1.0000   1.0000   1.0000
     1.0000   1.0000   1.0000   1.0000   1.0000   1.0000   1.0000   1.0000
     1.0000   1.0000   1.0000   1.0000   1.0000   1.0000   1.0000   1.0000
     1.0000   1.0000   1.0000   1.0000   1.0000   1.0000   1.0000   1.0000
     1.0000   1.0000   1.0000   1.0000   1.0000   1.0000   1.0000   1.0000
     1.0000   1.0000   1.0000   1.0000   1.0000   1.0000   1.0000   1.0000
     1.0000   1.0000   1.0000   1.0000   1.0000   1.0000   1.0000   1.0000
     1.0000   1.0000   1.0000   1.0000   1.0000   1.0000   1.0000   1.0000
     1.0000   1.0000   1.0000   1.0000   1.0000   1.0000   1.0000   1.0000
     1.0000   1.0000   1.0000   1.0000   1.0000   1.0000   1.0000   1.0000
     1.0000   1.0000   1.0000   1.0000   1.0000   1.0000   1.0000   1.0000
     1.0000   1.0000   1.0000   1.0000   1.0000   1.0000   1.0000   1.0000
     1.0000   1.0000   1.0000   1.0000   1.0000   1.0000   1.0000   1.0000
     1.0000   1.0000   1.0000   1.0000   1.0000   1.0000   1.0000   1.0000
     1.0000   1.0000   1.0000   1.0000   1.0000   1.0000   1.0000   1.0000
     1.0000   1.0000   1.0000   1.0000   1.0000   1.0000   1.0000   1.0000
     1.0000   1.0000   1.0000   1.0000   1.0000   1.0000   1.0000   1.0000
     1.0000   1.0000   1.0000   1.0000   1.0000   1.0000   1.0000   1.0000
     1.0000   1.0000   1.0000   1.0000   1.0000   1.0000   1.0000   1.0000
     1.0000   1.0000   1.0000   1.0000   1.0000   1.0000   1.0000   1.0000
     1.0000   1.0000   1.0000   1.0000   1.0000   1.0000   1.0000   1.0000
     1.0000   1.0000   1.0000   1.0000   1.0000   1.0000   1.0000   1.0000
     1.0000   1.0000   1.0000   1.0000   1.0000   1.0000   1.0000   1.0000
     0.0000   0.0000   0.0000   0.0000   0.0000   0.0000   0.0000   0.0000
     0.0000   0.0000   0.0000   0.0000   0.0000   0.0000   0.0000   0.0000
     0.0000   0.0000   0.0000   0.0000   0.0000   0.0000   0.0000   0.0000
     0.0000   0.0000   0.0000   0.0000   0.0000   0.0000   0.0000   0.0000
     0.0000   0.0000   0.0000   0.0000   0.0000   0.0000   0.0000   0.0000
     0.0000   0.0000   0.0000   0.0000   0.0000   0.0000   0.0000   0.0000
     0.0000   0.0000   0.0000   0.0000

          k = 0.2083 0.4571 0.0000 (126377 PWs)   bands (ev):

   -60.2505 -60.2464 -60.2449 -60.2350 -60.2328 -60.2280 -60.2263 -60.2257
   -60.2229 -60.2215 -60.2213 -60.2206 -60.2172 -60.2165 -60.2159 -60.2142
   -34.5291 -34.5155 -34.5113 -34.5105 -34.5046 -34.4934 -34.4800 -34.4718
   -34.4664 -34.4619 -34.4274 -34.4037 -34.3924 -34.3734 -34.3729 -34.3652
   -34.3621 -34.3440 -34.3422 -34.3378 -34.3299 -34.3281 -34.3247 -34.3234
   -34.3177 -34.3151 -34.3146 -34.3132 -34.3063 -34.3049 -34.3037 -34.3023
   -34.3002 -34.2884 -34.2831 -34.2823 -34.2739 -34.2734 -34.2677 -34.2670
   -34.2591 -34.2569 -34.2496 -34.2423 -34.2266 -34.2101 -34.2054 -34.1952
   -13.2443 -13.0652 -12.9961 -12.5250 -12.4138 -12.1599 -12.0604 -12.0376
   -12.0227 -11.9645 -11.9362 -11.8637 -11.7764 -11.7698 -11.7437 -11.7215
   -11.6984 -11.5933 -11.5593 -11.5459 -11.5063 -11.4762 -11.4714 -11.4507
   -11.4388 -11.4326 -11.4274 -11.3350 -11.3301 -11.3092 -11.2888 -11.2312
    -4.8591  -4.8479  -4.8397  -4.7408  -4.6896  -4.6582  -4.6375  -4.6144
    -4.5875  -4.5595  -4.5492  -4.5450  -4.4957  -4.4667  -4.3876  -4.3217
    -4.2726  -4.2652  -4.2519  -4.0384  -3.9663  -3.9343  -3.8953  -3.8064
    -3.6094  -3.5553  -3.3382  -3.3235  -3.2854  -3.2845  -3.2653  -3.2427
    -3.2334  -3.2282  -3.2062  -3.1786  -3.1748  -3.1583  -3.1526  -3.1122
    -2.9885  -2.8553  -2.8211  -2.7548  -2.6531  -2.6129  -2.5386  -2.5376
    -2.5050  -2.4773  -2.4702  -2.4373  -2.4312  -2.4071  -2.3664  -2.3384
    -2.3318  -2.3288  -2.2446  -2.2386  -2.1446  -2.0427  -1.8167  -1.7965
    -1.7824  -1.6186  -1.5996  -1.5583  -1.4551  -1.4494  -1.4308  -1.3190
    -1.3123  -1.2881  -1.2707  -1.2496  -1.2328  -1.1869  -1.1831  -1.1710
    -1.0788  -1.0785  -0.9779  -0.9358  -0.9358  -0.8521  -0.8519  -0.8372
    -0.8350  -0.7047  -0.4993  -0.4222  -0.4196  -0.3588  -0.3473  -0.3114
    -0.2227  -0.1992  -0.1524  -0.1262  -0.0871  -0.0671  -0.0669  -0.0079
    -0.0066   0.2531   0.2999   0.3527   0.3581   0.4181   0.5703   0.5756
     2.3424   2.6181   2.6196   2.6338   2.6677   2.7460   2.7593   2.7940
     2.7997   2.8362   2.8419   2.8441   2.8532   2.9143   2.9833   3.0715
     3.0817   3.0864   3.0904   3.1187   3.1402   3.1419   3.1748   3.1875
     3.2010   3.2163   3.2273   3.2339   3.2401   3.2546   3.2839   3.3397
     3.4387   3.4495   3.5106   3.6413   3.6939   3.7397   3.7534   3.8884
     3.9068   3.9638   3.9861   3.9983   4.0284   4.0660   4.0767   4.1064
     4.2920   4.2974   4.3797   4.6499

     occupation numbers 
     1.0000   1.0000   1.0000   1.0000   1.0000   1.0000   1.0000   1.0000
     1.0000   1.0000   1.0000   1.0000   1.0000   1.0000   1.0000   1.0000
     1.0000   1.0000   1.0000   1.0000   1.0000   1.0000   1.0000   1.0000
     1.0000   1.0000   1.0000   1.0000   1.0000   1.0000   1.0000   1.0000
     1.0000   1.0000   1.0000   1.0000   1.0000   1.0000   1.0000   1.0000
     1.0000   1.0000   1.0000   1.0000   1.0000   1.0000   1.0000   1.0000
     1.0000   1.0000   1.0000   1.0000   1.0000   1.0000   1.0000   1.0000
     1.0000   1.0000   1.0000   1.0000   1.0000   1.0000   1.0000   1.0000
     1.0000   1.0000   1.0000   1.0000   1.0000   1.0000   1.0000   1.0000
     1.0000   1.0000   1.0000   1.0000   1.0000   1.0000   1.0000   1.0000
     1.0000   1.0000   1.0000   1.0000   1.0000   1.0000   1.0000   1.0000
     1.0000   1.0000   1.0000   1.0000   1.0000   1.0000   1.0000   1.0000
     1.0000   1.0000   1.0000   1.0000   1.0000   1.0000   1.0000   1.0000
     1.0000   1.0000   1.0000   1.0000   1.0000   1.0000   1.0000   1.0000
     1.0000   1.0000   1.0000   1.0000   1.0000   1.0000   1.0000   1.0000
     1.0000   1.0000   1.0000   1.0000   1.0000   1.0000   1.0000   1.0000
     1.0000   1.0000   1.0000   1.0000   1.0000   1.0000   1.0000   1.0000
     1.0000   1.0000   1.0000   1.0000   1.0000   1.0000   1.0000   1.0000
     1.0000   1.0000   1.0000   1.0000   1.0000   1.0000   1.0000   1.0000
     1.0000   1.0000   1.0000   1.0000   1.0000   1.0000   1.0000   1.0000
     1.0000   1.0000   1.0000   1.0000   1.0000   1.0000   1.0000   1.0000
     1.0000   1.0000   1.0000   1.0000   1.0000   1.0000   1.0000   1.0000
     1.0000   1.0000   1.0000   1.0000   1.0000   1.0000   1.0000   1.0000
     1.0000   1.0000   1.0000   1.0000   1.0000   1.0000   1.0000   1.0000
     1.0000   1.0000   1.0000   1.0000   1.0000   1.0000   1.0000   1.0000
     1.0000   1.0000   1.0000   1.0000   1.0000   1.0000   1.0000   1.0000
     0.0000   0.0000   0.0000   0.0000   0.0000   0.0000   0.0000   0.0000
     0.0000   0.0000   0.0000   0.0000   0.0000   0.0000   0.0000   0.0000
     0.0000   0.0000   0.0000   0.0000   0.0000   0.0000   0.0000   0.0000
     0.0000   0.0000   0.0000   0.0000   0.0000   0.0000   0.0000   0.0000
     0.0000   0.0000   0.0000   0.0000   0.0000   0.0000   0.0000   0.0000
     0.0000   0.0000   0.0000   0.0000   0.0000   0.0000   0.0000   0.0000
     0.0000   0.0000   0.0000   0.0000

          k = 0.2083 0.5052 0.0000 (126380 PWs)   bands (ev):

   -60.2498 -60.2474 -60.2450 -60.2351 -60.2318 -60.2290 -60.2256 -60.2247
   -60.2235 -60.2223 -60.2212 -60.2208 -60.2170 -60.2166 -60.2157 -60.2141
   -34.5259 -34.5147 -34.5113 -34.5053 -34.5045 -34.4980 -34.4807 -34.4770
   -34.4661 -34.4646 -34.4207 -34.4066 -34.3996 -34.3720 -34.3714 -34.3671
   -34.3624 -34.3448 -34.3423 -34.3358 -34.3300 -34.3242 -34.3233 -34.3215
   -34.3191 -34.3165 -34.3144 -34.3135 -34.3075 -34.3060 -34.3052 -34.3034
   -34.3000 -34.2851 -34.2808 -34.2777 -34.2764 -34.2684 -34.2652 -34.2632
   -34.2591 -34.2585 -34.2541 -34.2427 -34.2337 -34.2100 -34.2031 -34.1970
   -13.2138 -13.1061 -13.0017 -12.5295 -12.3644 -12.2117 -12.0251 -12.0219
   -11.9812 -11.9688 -11.9385 -11.9035 -11.8204 -11.7614 -11.7455 -11.7323
   -11.6780 -11.6148 -11.5433 -11.5248 -11.4982 -11.4933 -11.4772 -11.4675
   -11.4370 -11.4301 -11.4242 -11.3294 -11.3243 -11.3139 -11.2852 -11.2284
    -4.8194  -4.8120  -4.7984  -4.7082  -4.6998  -4.6969  -4.6853  -4.6621
    -4.5985  -4.5848  -4.5614  -4.5457  -4.4999  -4.4786  -4.3665  -4.3051
    -4.2970  -4.2702  -4.2477  -4.0068  -3.9593  -3.9402  -3.8457  -3.7510
    -3.6737  -3.6002  -3.3106  -3.3033  -3.2707  -3.2664  -3.2623  -3.2583
    -3.2446  -3.2357  -3.2027  -3.1974  -3.1703  -3.1649  -3.1551  -3.1312
    -3.0466  -2.8620  -2.7967  -2.7458  -2.5897  -2.5869  -2.5228  -2.5151
    -2.4991  -2.4859  -2.4777  -2.4672  -2.4237  -2.4195  -2.4104  -2.3966
    -2.3568  -2.3545  -2.2309  -2.2197  -2.0700  -2.0437  -1.8525  -1.7657
    -1.7030  -1.6587  -1.6117  -1.5658  -1.4473  -1.4060  -1.3906  -1.3611
    -1.3001  -1.2937  -1.2462  -1.2384  -1.2224  -1.2171  -1.1863  -1.1839
    -1.0546  -1.0533  -1.0325  -0.9685  -0.9665  -0.9285  -0.8469  -0.8457
    -0.8095  -0.7297  -0.4747  -0.4282  -0.3943  -0.3503  -0.3392  -0.2962
    -0.2026  -0.1731  -0.1557  -0.1403  -0.1191  -0.0933  -0.0616  -0.0039
    -0.0038   0.2654   0.2930   0.3591   0.3725   0.4563   0.5473   0.5922
     2.3229   2.6063   2.6067   2.6272   2.6560   2.7574   2.7670   2.7831
     2.8023   2.8258   2.8281   2.8480   2.8535   2.9176   3.0289   3.0901
     3.0938   3.1005   3.1027   3.1050   3.1320   3.1391   3.1576   3.1689
     3.1724   3.1811   3.2184   3.2301   3.2325   3.2336   3.3181   3.3524
     3.4122   3.4183   3.5372   3.6166   3.7365   3.7438   3.7739   3.8924
     3.9039   3.9067   3.9933   4.0613   4.0767   4.0858   4.1243   4.1264
     4.2443   4.2447   4.3147   4.6540

     occupation numbers 
     1.0000   1.0000   1.0000   1.0000   1.0000   1.0000   1.0000   1.0000
     1.0000   1.0000   1.0000   1.0000   1.0000   1.0000   1.0000   1.0000
     1.0000   1.0000   1.0000   1.0000   1.0000   1.0000   1.0000   1.0000
     1.0000   1.0000   1.0000   1.0000   1.0000   1.0000   1.0000   1.0000
     1.0000   1.0000   1.0000   1.0000   1.0000   1.0000   1.0000   1.0000
     1.0000   1.0000   1.0000   1.0000   1.0000   1.0000   1.0000   1.0000
     1.0000   1.0000   1.0000   1.0000   1.0000   1.0000   1.0000   1.0000
     1.0000   1.0000   1.0000   1.0000   1.0000   1.0000   1.0000   1.0000
     1.0000   1.0000   1.0000   1.0000   1.0000   1.0000   1.0000   1.0000
     1.0000   1.0000   1.0000   1.0000   1.0000   1.0000   1.0000   1.0000
     1.0000   1.0000   1.0000   1.0000   1.0000   1.0000   1.0000   1.0000
     1.0000   1.0000   1.0000   1.0000   1.0000   1.0000   1.0000   1.0000
     1.0000   1.0000   1.0000   1.0000   1.0000   1.0000   1.0000   1.0000
     1.0000   1.0000   1.0000   1.0000   1.0000   1.0000   1.0000   1.0000
     1.0000   1.0000   1.0000   1.0000   1.0000   1.0000   1.0000   1.0000
     1.0000   1.0000   1.0000   1.0000   1.0000   1.0000   1.0000   1.0000
     1.0000   1.0000   1.0000   1.0000   1.0000   1.0000   1.0000   1.0000
     1.0000   1.0000   1.0000   1.0000   1.0000   1.0000   1.0000   1.0000
     1.0000   1.0000   1.0000   1.0000   1.0000   1.0000   1.0000   1.0000
     1.0000   1.0000   1.0000   1.0000   1.0000   1.0000   1.0000   1.0000
     1.0000   1.0000   1.0000   1.0000   1.0000   1.0000   1.0000   1.0000
     1.0000   1.0000   1.0000   1.0000   1.0000   1.0000   1.0000   1.0000
     1.0000   1.0000   1.0000   1.0000   1.0000   1.0000   1.0000   1.0000
     1.0000   1.0000   1.0000   1.0000   1.0000   1.0000   1.0000   1.0000
     1.0000   1.0000   1.0000   1.0000   1.0000   1.0000   1.0000   1.0000
     1.0000   1.0000   1.0000   1.0000   1.0000   1.0000   1.0000   1.0000
     0.0000   0.0000   0.0000   0.0000   0.0000   0.0000   0.0000   0.0000
     0.0000   0.0000   0.0000   0.0000   0.0000   0.0000   0.0000   0.0000
     0.0000   0.0000   0.0000   0.0000   0.0000   0.0000   0.0000   0.0000
     0.0000   0.0000   0.0000   0.0000   0.0000   0.0000   0.0000   0.0000
     0.0000   0.0000   0.0000   0.0000   0.0000   0.0000   0.0000   0.0000
     0.0000   0.0000   0.0000   0.0000   0.0000   0.0000   0.0000   0.0000
     0.0000   0.0000   0.0000   0.0000

          k = 0.2083 0.5533 0.0000 (126370 PWs)   bands (ev):

   -60.2491 -60.2482 -60.2451 -60.2351 -60.2309 -60.2299 -60.2249 -60.2242
   -60.2239 -60.2230 -60.2211 -60.2209 -60.2169 -60.2168 -60.2157 -60.2140
   -34.5224 -34.5187 -34.5069 -34.5056 -34.5025 -34.4971 -34.4892 -34.4737
   -34.4701 -34.4636 -34.4138 -34.4082 -34.4068 -34.3707 -34.3705 -34.3688
   -34.3625 -34.3452 -34.3424 -34.3339 -34.3320 -34.3219 -34.3205 -34.3197
   -34.3185 -34.3181 -34.3141 -34.3138 -34.3129 -34.3057 -34.3054 -34.3033
   -34.3000 -34.2820 -34.2801 -34.2791 -34.2725 -34.2677 -34.2636 -34.2633
   -34.2613 -34.2588 -34.2497 -34.2429 -34.2414 -34.2100 -34.2010 -34.1989
   -13.1805 -13.1446 -13.0046 -12.5318 -12.3142 -12.2632 -12.0116 -11.9969
   -11.9828 -11.9432 -11.9397 -11.9169 -11.8673 -11.7523 -11.7463 -11.7426
   -11.6573 -11.6362 -11.5269 -11.5102 -11.5047 -11.4906 -11.4855 -11.4836
   -11.4350 -11.4327 -11.4200 -11.3240 -11.3213 -11.3188 -11.2835 -11.2269
    -4.7769  -4.7744  -4.7547  -4.7359  -4.7320  -4.7091  -4.7049  -4.6733
    -4.6366  -4.5794  -4.5715  -4.5460  -4.5020  -4.4845  -4.3442  -4.3209
    -4.2906  -4.2788  -4.2455  -3.9893  -3.9527  -3.9463  -3.7921  -3.7347
    -3.6980  -3.6477  -3.3244  -3.2961  -3.2801  -3.2572  -3.2503  -3.2467
    -3.2454  -3.2255  -3.1875  -3.1822  -3.1766  -3.1611  -3.1535  -3.1478
    -3.1113  -2.8650  -2.7832  -2.7413  -2.5583  -2.5216  -2.5176  -2.5090
    -2.4965  -2.4924  -2.4856  -2.4852  -2.4579  -2.4505  -2.4198  -2.3998
    -2.3781  -2.3706  -2.2238  -2.2098  -2.0441  -1.9965  -1.9239  -1.7324
    -1.6967  -1.6185  -1.5887  -1.5696  -1.4744  -1.4559  -1.3621  -1.3328
    -1.3244  -1.3061  -1.2765  -1.2531  -1.1855  -1.1847  -1.1635  -1.1206
    -1.0946  -1.0280  -1.0260  -1.0241  -0.9993  -0.9968  -0.8436  -0.8431
    -0.7823  -0.7556  -0.4545  -0.4390  -0.3740  -0.3592  -0.3291  -0.2883
    -0.1779  -0.1549  -0.1499  -0.1497  -0.1464  -0.1197  -0.0589  -0.0022
    -0.0021   0.2759   0.2851   0.3622   0.3798   0.4905   0.5208   0.6007
     2.3130   2.6001   2.6002   2.6239   2.6499   2.7609   2.7697   2.7878
     2.8075   2.8110   2.8197   2.8509   2.8528   2.9193   3.0777   3.0919
     3.0980   3.1111   3.1183   3.1217   3.1222   3.1287   3.1403   3.1439
     3.1447   3.1541   3.2217   3.2229   3.2264   3.2314   3.3522   3.3688
     3.3857   3.3888   3.5640   3.5907   3.7350   3.7844   3.7962   3.8507
     3.8964   3.9003   3.9968   4.0768   4.1246   4.1365   4.1410   4.1858
     4.1864   4.1940   4.2496   4.6561

     occupation numbers 
     1.0000   1.0000   1.0000   1.0000   1.0000   1.0000   1.0000   1.0000
     1.0000   1.0000   1.0000   1.0000   1.0000   1.0000   1.0000   1.0000
     1.0000   1.0000   1.0000   1.0000   1.0000   1.0000   1.0000   1.0000
     1.0000   1.0000   1.0000   1.0000   1.0000   1.0000   1.0000   1.0000
     1.0000   1.0000   1.0000   1.0000   1.0000   1.0000   1.0000   1.0000
     1.0000   1.0000   1.0000   1.0000   1.0000   1.0000   1.0000   1.0000
     1.0000   1.0000   1.0000   1.0000   1.0000   1.0000   1.0000   1.0000
     1.0000   1.0000   1.0000   1.0000   1.0000   1.0000   1.0000   1.0000
     1.0000   1.0000   1.0000   1.0000   1.0000   1.0000   1.0000   1.0000
     1.0000   1.0000   1.0000   1.0000   1.0000   1.0000   1.0000   1.0000
     1.0000   1.0000   1.0000   1.0000   1.0000   1.0000   1.0000   1.0000
     1.0000   1.0000   1.0000   1.0000   1.0000   1.0000   1.0000   1.0000
     1.0000   1.0000   1.0000   1.0000   1.0000   1.0000   1.0000   1.0000
     1.0000   1.0000   1.0000   1.0000   1.0000   1.0000   1.0000   1.0000
     1.0000   1.0000   1.0000   1.0000   1.0000   1.0000   1.0000   1.0000
     1.0000   1.0000   1.0000   1.0000   1.0000   1.0000   1.0000   1.0000
     1.0000   1.0000   1.0000   1.0000   1.0000   1.0000   1.0000   1.0000
     1.0000   1.0000   1.0000   1.0000   1.0000   1.0000   1.0000   1.0000
     1.0000   1.0000   1.0000   1.0000   1.0000   1.0000   1.0000   1.0000
     1.0000   1.0000   1.0000   1.0000   1.0000   1.0000   1.0000   1.0000
     1.0000   1.0000   1.0000   1.0000   1.0000   1.0000   1.0000   1.0000
     1.0000   1.0000   1.0000   1.0000   1.0000   1.0000   1.0000   1.0000
     1.0000   1.0000   1.0000   1.0000   1.0000   1.0000   1.0000   1.0000
     1.0000   1.0000   1.0000   1.0000   1.0000   1.0000   1.0000   1.0000
     1.0000   1.0000   1.0000   1.0000   1.0000   1.0000   1.0000   1.0000
     1.0000   1.0000   1.0000   1.0000   1.0000   1.0000   1.0000   1.0000
     0.0000   0.0000   0.0000   0.0000   0.0000   0.0000   0.0000   0.0000
     0.0000   0.0000   0.0000   0.0000   0.0000   0.0000   0.0000   0.0000
     0.0000   0.0000   0.0000   0.0000   0.0000   0.0000   0.0000   0.0000
     0.0000   0.0000   0.0000   0.0000   0.0000   0.0000   0.0000   0.0000
     0.0000   0.0000   0.0000   0.0000   0.0000   0.0000   0.0000   0.0000
     0.0000   0.0000   0.0000   0.0000   0.0000   0.0000   0.0000   0.0000
     0.0000   0.0000   0.0000   0.0000

          k = 0.2500 0.4330 0.0000 (126379 PWs)   bands (ev):

   -60.2506 -60.2457 -60.2457 -60.2339 -60.2339 -60.2280 -60.2260 -60.2260
   -60.2221 -60.2221 -60.2211 -60.2211 -60.2172 -60.2162 -60.2162 -60.2141
   -34.5295 -34.5136 -34.5136 -34.5077 -34.5077 -34.4869 -34.4869 -34.4668
   -34.4668 -34.4656 -34.4271 -34.4047 -34.3827 -34.3827 -34.3735 -34.3637
   -34.3637 -34.3400 -34.3400 -34.3369 -34.3369 -34.3281 -34.3240 -34.3240
   -34.3161 -34.3161 -34.3141 -34.3141 -34.3062 -34.3043 -34.3043 -34.3024
   -34.3002 -34.2858 -34.2858 -34.2748 -34.2748 -34.2736 -34.2702 -34.2702
   -34.2579 -34.2578 -34.2459 -34.2459 -34.2262 -34.2077 -34.2077 -34.1952
   -13.2458 -13.0319 -13.0319 -12.4697 -12.4697 -12.1607 -12.0422 -12.0422
   -12.0382 -11.9509 -11.9509 -11.8156 -11.8155 -11.7490 -11.7490 -11.7212
   -11.7212 -11.5936 -11.5528 -11.5528 -11.5039 -11.4570 -11.4570 -11.4513
   -11.4513 -11.4391 -11.4391 -11.3341 -11.3292 -11.2987 -11.2987 -11.2307
    -4.8609  -4.8457  -4.8457  -4.7424  -4.6917  -4.6236  -4.6236  -4.5931
    -4.5931  -4.5819  -4.5819  -4.5282  -4.5282  -4.4281  -4.4281  -4.3193
    -4.2755  -4.2550  -4.2549  -4.0293  -3.9299  -3.9299  -3.8725  -3.8725
    -3.5824  -3.5824  -3.3353  -3.3252  -3.2854  -3.2854  -3.2683  -3.2378
    -3.2378  -3.2175  -3.2175  -3.1697  -3.1697  -3.1642  -3.1642  -3.1111
    -2.9033  -2.9033  -2.8642  -2.7034  -2.7034  -2.6165  -2.5388  -2.5388
    -2.5045  -2.4585  -2.4585  -2.4517  -2.4517  -2.3727  -2.3727  -2.3452
    -2.3452  -2.3353  -2.2422  -2.1915  -2.1915  -1.9299  -1.9299  -1.7982
    -1.7776  -1.5890  -1.5890  -1.5219  -1.5219  -1.4601  -1.4334  -1.3168
    -1.3168  -1.2770  -1.2770  -1.2488  -1.2092  -1.2092  -1.1854  -1.1713
    -1.0784  -1.0784  -0.9074  -0.9074  -0.8957  -0.8957  -0.8947  -0.8947
    -0.7661  -0.7660  -0.4953  -0.4189  -0.3887  -0.3887  -0.3287  -0.3287
    -0.2104  -0.2104  -0.1521  -0.0994  -0.0994  -0.0465  -0.0465  -0.0379
    -0.0379   0.2563   0.3289   0.3289   0.3869   0.3869   0.5714   0.5781
     2.3386   2.6181   2.6235   2.6235   2.7081   2.7081   2.7777   2.7777
     2.8242   2.8242   2.8408   2.8441   2.8441   2.9489   2.9489   3.0754
     3.0754   3.0875   3.0875   3.1286   3.1286   3.1425   3.1869   3.1933
     3.1933   3.2201   3.2201   3.2370   3.2554   3.2554   3.2952   3.2952
     3.4336   3.4506   3.5148   3.6926   3.6977   3.6977   3.7374   3.9440
     3.9440   3.9693   3.9693   4.0190   4.0190   4.0258   4.0258   4.1098
     4.2959   4.2959   4.3846   4.6965

     occupation numbers 
     1.0000   1.0000   1.0000   1.0000   1.0000   1.0000   1.0000   1.0000
     1.0000   1.0000   1.0000   1.0000   1.0000   1.0000   1.0000   1.0000
     1.0000   1.0000   1.0000   1.0000   1.0000   1.0000   1.0000   1.0000
     1.0000   1.0000   1.0000   1.0000   1.0000   1.0000   1.0000   1.0000
     1.0000   1.0000   1.0000   1.0000   1.0000   1.0000   1.0000   1.0000
     1.0000   1.0000   1.0000   1.0000   1.0000   1.0000   1.0000   1.0000
     1.0000   1.0000   1.0000   1.0000   1.0000   1.0000   1.0000   1.0000
     1.0000   1.0000   1.0000   1.0000   1.0000   1.0000   1.0000   1.0000
     1.0000   1.0000   1.0000   1.0000   1.0000   1.0000   1.0000   1.0000
     1.0000   1.0000   1.0000   1.0000   1.0000   1.0000   1.0000   1.0000
     1.0000   1.0000   1.0000   1.0000   1.0000   1.0000   1.0000   1.0000
     1.0000   1.0000   1.0000   1.0000   1.0000   1.0000   1.0000   1.0000
     1.0000   1.0000   1.0000   1.0000   1.0000   1.0000   1.0000   1.0000
     1.0000   1.0000   1.0000   1.0000   1.0000   1.0000   1.0000   1.0000
     1.0000   1.0000   1.0000   1.0000   1.0000   1.0000   1.0000   1.0000
     1.0000   1.0000   1.0000   1.0000   1.0000   1.0000   1.0000   1.0000
     1.0000   1.0000   1.0000   1.0000   1.0000   1.0000   1.0000   1.0000
     1.0000   1.0000   1.0000   1.0000   1.0000   1.0000   1.0000   1.0000
     1.0000   1.0000   1.0000   1.0000   1.0000   1.0000   1.0000   1.0000
     1.0000   1.0000   1.0000   1.0000   1.0000   1.0000   1.0000   1.0000
     1.0000   1.0000   1.0000   1.0000   1.0000   1.0000   1.0000   1.0000
     1.0000   1.0000   1.0000   1.0000   1.0000   1.0000   1.0000   1.0000
     1.0000   1.0000   1.0000   1.0000   1.0000   1.0000   1.0000   1.0000
     1.0000   1.0000   1.0000   1.0000   1.0000   1.0000   1.0000   1.0000
     1.0000   1.0000   1.0000   1.0000   1.0000   1.0000   1.0000   1.0000
     1.0000   1.0000   1.0000   1.0000   1.0000   1.0000   1.0000   1.0000
     0.0000   0.0000   0.0000   0.0000   0.0000   0.0000   0.0000   0.0000
     0.0000   0.0000   0.0000   0.0000   0.0000   0.0000   0.0000   0.0000
     0.0000   0.0000   0.0000   0.0000   0.0000   0.0000   0.0000   0.0000
     0.0000   0.0000   0.0000   0.0000   0.0000   0.0000   0.0000   0.0000
     0.0000   0.0000   0.0000   0.0000   0.0000   0.0000   0.0000   0.0000
     0.0000   0.0000   0.0000   0.0000   0.0000   0.0000   0.0000   0.0000
     0.0000   0.0000   0.0000   0.0000

          k = 0.2500 0.4811 0.0000 (126373 PWs)   bands (ev):

   -60.2499 -60.2466 -60.2458 -60.2340 -60.2329 -60.2290 -60.2253 -60.2250
   -60.2227 -60.2219 -60.2218 -60.2213 -60.2170 -60.2163 -60.2160 -60.2140
   -34.5265 -34.5119 -34.5094 -34.5088 -34.5072 -34.4914 -34.4845 -34.4759
   -34.4710 -34.4629 -34.4199 -34.4087 -34.3903 -34.3809 -34.3722 -34.3656
   -34.3640 -34.3402 -34.3380 -34.3378 -34.3309 -34.3301 -34.3227 -34.3221
   -34.3174 -34.3159 -34.3155 -34.3145 -34.3078 -34.3058 -34.3045 -34.3040
   -34.3000 -34.2828 -34.2803 -34.2729 -34.2723 -34.2688 -34.2685 -34.2655
   -34.2616 -34.2602 -34.2503 -34.2465 -34.2329 -34.2076 -34.2053 -34.1969
   -13.2168 -13.0739 -13.0391 -12.4753 -12.4202 -12.2135 -12.0264 -12.0054
   -11.9877 -11.9680 -11.9538 -11.8537 -11.8063 -11.7911 -11.7617 -11.7233
   -11.7008 -11.6154 -11.5376 -11.5315 -11.4935 -11.4735 -11.4584 -11.4553
   -11.4547 -11.4428 -11.4407 -11.3276 -11.3223 -11.3039 -11.2943 -11.2273
    -4.8228  -4.8112  -4.8066  -4.7113  -4.7040  -4.6612  -4.6423  -4.6290
    -4.6237  -4.5957  -4.5952  -4.5671  -4.5340  -4.4430  -4.4055  -4.3029
    -4.3005  -4.2561  -4.2484  -3.9866  -3.9196  -3.8817  -3.8813  -3.8182
    -3.6492  -3.6247  -3.3148  -3.3142  -3.2702  -3.2687  -3.2563  -3.2515
    -3.2504  -3.2236  -3.2108  -3.1875  -3.1747  -3.1711  -3.1663  -3.1292
    -2.9598  -2.8767  -2.8760  -2.6916  -2.6384  -2.5977  -2.5216  -2.5191
    -2.4977  -2.4665  -2.4615  -2.4441  -2.4433  -2.4375  -2.4011  -2.3907
    -2.3878  -2.3689  -2.2254  -2.1693  -2.1194  -1.9304  -1.8432  -1.8166
    -1.7692  -1.6291  -1.5980  -1.5339  -1.4598  -1.4531  -1.4152  -1.3599
    -1.2929  -1.2908  -1.2332  -1.2259  -1.2252  -1.2238  -1.2051  -1.1889
    -1.0534  -1.0527  -0.9582  -0.9311  -0.9281  -0.8902  -0.8877  -0.8834
    -0.8550  -0.7885  -0.4663  -0.3948  -0.3917  -0.3649  -0.3302  -0.3118
    -0.1914  -0.1815  -0.1548  -0.1198  -0.0934  -0.0790  -0.0656  -0.0405
    -0.0356   0.2717   0.3196   0.3461   0.3946   0.4270   0.5498   0.5980
     2.3148   2.6037   2.6080   2.6150   2.6951   2.7325   2.7741   2.7894
     2.8080   2.8231   2.8301   2.8349   2.8437   2.9547   2.9919   3.0920
     3.0944   3.0956   3.0976   3.1138   3.1255   3.1334   3.1669   3.1740
     3.1866   3.1919   3.1941   3.2117   3.2590   3.2692   3.2886   3.3090
     3.4019   3.4202   3.5458   3.6696   3.7224   3.7323   3.7416   3.9499
     3.9609   3.9673   4.0063   4.0178   4.0285   4.0362   4.0802   4.1337
     4.2470   4.2472   4.3230   4.7018

     occupation numbers 
     1.0000   1.0000   1.0000   1.0000   1.0000   1.0000   1.0000   1.0000
     1.0000   1.0000   1.0000   1.0000   1.0000   1.0000   1.0000   1.0000
     1.0000   1.0000   1.0000   1.0000   1.0000   1.0000   1.0000   1.0000
     1.0000   1.0000   1.0000   1.0000   1.0000   1.0000   1.0000   1.0000
     1.0000   1.0000   1.0000   1.0000   1.0000   1.0000   1.0000   1.0000
     1.0000   1.0000   1.0000   1.0000   1.0000   1.0000   1.0000   1.0000
     1.0000   1.0000   1.0000   1.0000   1.0000   1.0000   1.0000   1.0000
     1.0000   1.0000   1.0000   1.0000   1.0000   1.0000   1.0000   1.0000
     1.0000   1.0000   1.0000   1.0000   1.0000   1.0000   1.0000   1.0000
     1.0000   1.0000   1.0000   1.0000   1.0000   1.0000   1.0000   1.0000
     1.0000   1.0000   1.0000   1.0000   1.0000   1.0000   1.0000   1.0000
     1.0000   1.0000   1.0000   1.0000   1.0000   1.0000   1.0000   1.0000
     1.0000   1.0000   1.0000   1.0000   1.0000   1.0000   1.0000   1.0000
     1.0000   1.0000   1.0000   1.0000   1.0000   1.0000   1.0000   1.0000
     1.0000   1.0000   1.0000   1.0000   1.0000   1.0000   1.0000   1.0000
     1.0000   1.0000   1.0000   1.0000   1.0000   1.0000   1.0000   1.0000
     1.0000   1.0000   1.0000   1.0000   1.0000   1.0000   1.0000   1.0000
     1.0000   1.0000   1.0000   1.0000   1.0000   1.0000   1.0000   1.0000
     1.0000   1.0000   1.0000   1.0000   1.0000   1.0000   1.0000   1.0000
     1.0000   1.0000   1.0000   1.0000   1.0000   1.0000   1.0000   1.0000
     1.0000   1.0000   1.0000   1.0000   1.0000   1.0000   1.0000   1.0000
     1.0000   1.0000   1.0000   1.0000   1.0000   1.0000   1.0000   1.0000
     1.0000   1.0000   1.0000   1.0000   1.0000   1.0000   1.0000   1.0000
     1.0000   1.0000   1.0000   1.0000   1.0000   1.0000   1.0000   1.0000
     1.0000   1.0000   1.0000   1.0000   1.0000   1.0000   1.0000   1.0000
     1.0000   1.0000   1.0000   1.0000   1.0000   1.0000   1.0000   1.0000
     0.0000   0.0000   0.0000   0.0000   0.0000   0.0000   0.0000   0.0000
     0.0000   0.0000   0.0000   0.0000   0.0000   0.0000   0.0000   0.0000
     0.0000   0.0000   0.0000   0.0000   0.0000   0.0000   0.0000   0.0000
     0.0000   0.0000   0.0000   0.0000   0.0000   0.0000   0.0000   0.0000
     0.0000   0.0000   0.0000   0.0000   0.0000   0.0000   0.0000   0.0000
     0.0000   0.0000   0.0000   0.0000   0.0000   0.0000   0.0000   0.0000
     0.0000   0.0000   0.0000   0.0000

          k = 0.2500 0.5292 0.0000 (126356 PWs)   bands (ev):

   -60.2492 -60.2475 -60.2459 -60.2341 -60.2319 -60.2300 -60.2247 -60.2241
   -60.2234 -60.2225 -60.2218 -60.2215 -60.2168 -60.2165 -60.2159 -60.2140
   -34.5233 -34.5159 -34.5094 -34.5051 -34.5001 -34.4960 -34.4845 -34.4816
   -34.4749 -34.4611 -34.4127 -34.4113 -34.3978 -34.3798 -34.3707 -34.3674
   -34.3642 -34.3403 -34.3384 -34.3360 -34.3321 -34.3250 -34.3214 -34.3203
   -34.3188 -34.3170 -34.3156 -34.3149 -34.3133 -34.3055 -34.3048 -34.3038
   -34.2999 -34.2799 -34.2751 -34.2746 -34.2718 -34.2667 -34.2658 -34.2640
   -34.2625 -34.2566 -34.2548 -34.2468 -34.2403 -34.2075 -34.2030 -34.1988
   -13.1850 -13.1135 -13.0434 -12.4786 -12.3696 -12.2661 -12.0134 -11.9842
   -11.9680 -11.9555 -11.9350 -11.8920 -11.8364 -11.7962 -11.7739 -11.7245
   -11.6799 -11.6372 -11.5220 -11.5109 -11.4899 -11.4837 -11.4727 -11.4661
   -11.4522 -11.4462 -11.4342 -11.3213 -11.3182 -11.3094 -11.2916 -11.2252
    -4.7814  -4.7749  -4.7649  -4.7115  -4.6994  -4.6906  -4.6778  -4.6755
    -4.6207  -4.6062  -4.6053  -4.5972  -4.5375  -4.4519  -4.3814  -4.3298
    -4.2842  -4.2615  -4.2444  -3.9570  -3.9096  -3.8905  -3.8294  -3.7661
    -3.7128  -3.6693  -3.3478  -3.3019  -3.2731  -3.2581  -3.2558  -3.2505
    -3.2321  -3.2098  -3.2030  -3.1849  -3.1705  -3.1672  -3.1642  -3.1453
    -3.0234  -2.8832  -2.8576  -2.6844  -2.5739  -2.5716  -2.5053  -2.4937
    -2.4923  -2.4897  -2.4772  -2.4713  -2.4494  -2.4382  -2.4281  -2.4274
    -2.4202  -2.3905  -2.2149  -2.1551  -2.0485  -1.9307  -1.9103  -1.7376
    -1.7021  -1.6674  -1.6035  -1.5423  -1.4730  -1.4655  -1.3983  -1.3748
    -1.3119  -1.3025  -1.2796  -1.2350  -1.2009  -1.1927  -1.1550  -1.1332
    -1.0260  -1.0243  -1.0169  -0.9648  -0.9613  -0.9466  -0.8860  -0.8842
    -0.8595  -0.8118  -0.4415  -0.4056  -0.3687  -0.3503  -0.3375  -0.3012
    -0.1678  -0.1531  -0.1520  -0.1357  -0.1106  -0.0938  -0.0898  -0.0366
    -0.0344   0.2856   0.3094   0.3568   0.3993   0.4634   0.5247   0.6103
     2.3000   2.5954   2.5978   2.6099   2.6870   2.7568   2.7758   2.7935
     2.8014   2.8028   2.8245   2.8352   2.8421   2.9582   3.0378   3.0947
     3.1045   3.1046   3.1157   3.1183   3.1238   3.1284   3.1360   3.1498
     3.1558   3.1648   3.1961   3.2048   3.2532   3.2610   3.3221   3.3266
     3.3733   3.3884   3.5774   3.6399   3.7293   3.7376   3.7934   3.9036
     3.9552   3.9641   4.0174   4.0425   4.0695   4.0862   4.1379   4.1483
     4.1919   4.1956   4.2604   4.7051

     occupation numbers 
     1.0000   1.0000   1.0000   1.0000   1.0000   1.0000   1.0000   1.0000
     1.0000   1.0000   1.0000   1.0000   1.0000   1.0000   1.0000   1.0000
     1.0000   1.0000   1.0000   1.0000   1.0000   1.0000   1.0000   1.0000
     1.0000   1.0000   1.0000   1.0000   1.0000   1.0000   1.0000   1.0000
     1.0000   1.0000   1.0000   1.0000   1.0000   1.0000   1.0000   1.0000
     1.0000   1.0000   1.0000   1.0000   1.0000   1.0000   1.0000   1.0000
     1.0000   1.0000   1.0000   1.0000   1.0000   1.0000   1.0000   1.0000
     1.0000   1.0000   1.0000   1.0000   1.0000   1.0000   1.0000   1.0000
     1.0000   1.0000   1.0000   1.0000   1.0000   1.0000   1.0000   1.0000
     1.0000   1.0000   1.0000   1.0000   1.0000   1.0000   1.0000   1.0000
     1.0000   1.0000   1.0000   1.0000   1.0000   1.0000   1.0000   1.0000
     1.0000   1.0000   1.0000   1.0000   1.0000   1.0000   1.0000   1.0000
     1.0000   1.0000   1.0000   1.0000   1.0000   1.0000   1.0000   1.0000
     1.0000   1.0000   1.0000   1.0000   1.0000   1.0000   1.0000   1.0000
     1.0000   1.0000   1.0000   1.0000   1.0000   1.0000   1.0000   1.0000
     1.0000   1.0000   1.0000   1.0000   1.0000   1.0000   1.0000   1.0000
     1.0000   1.0000   1.0000   1.0000   1.0000   1.0000   1.0000   1.0000
     1.0000   1.0000   1.0000   1.0000   1.0000   1.0000   1.0000   1.0000
     1.0000   1.0000   1.0000   1.0000   1.0000   1.0000   1.0000   1.0000
     1.0000   1.0000   1.0000   1.0000   1.0000   1.0000   1.0000   1.0000
     1.0000   1.0000   1.0000   1.0000   1.0000   1.0000   1.0000   1.0000
     1.0000   1.0000   1.0000   1.0000   1.0000   1.0000   1.0000   1.0000
     1.0000   1.0000   1.0000   1.0000   1.0000   1.0000   1.0000   1.0000
     1.0000   1.0000   1.0000   1.0000   1.0000   1.0000   1.0000   1.0000
     1.0000   1.0000   1.0000   1.0000   1.0000   1.0000   1.0000   1.0000
     1.0000   1.0000   1.0000   1.0000   1.0000   1.0000   1.0000   1.0000
     0.0000   0.0000   0.0000   0.0000   0.0000   0.0000   0.0000   0.0000
     0.0000   0.0000   0.0000   0.0000   0.0000   0.0000   0.0000   0.0000
     0.0000   0.0000   0.0000   0.0000   0.0000   0.0000   0.0000   0.0000
     0.0000   0.0000   0.0000   0.0000   0.0000   0.0000   0.0000   0.0000
     0.0000   0.0000   0.0000   0.0000   0.0000   0.0000   0.0000   0.0000
     0.0000   0.0000   0.0000   0.0000   0.0000   0.0000   0.0000   0.0000
     0.0000   0.0000   0.0000   0.0000

          k = 0.2500 0.5774 0.0000 (126387 PWs)   bands (ev):

   -60.2484 -60.2484 -60.2460 -60.2341 -60.2310 -60.2309 -60.2240 -60.2240
   -60.2233 -60.2233 -60.2216 -60.2216 -60.2166 -60.2166 -60.2159 -60.2140
   -34.5198 -34.5197 -34.5096 -34.5006 -34.5006 -34.4926 -34.4925 -34.4784
   -34.4784 -34.4604 -34.4123 -34.4053 -34.4053 -34.3794 -34.3691 -34.3691
   -34.3643 -34.3404 -34.3385 -34.3341 -34.3340 -34.3201 -34.3201 -34.3191
   -34.3191 -34.3186 -34.3186 -34.3152 -34.3152 -34.3052 -34.3051 -34.3037
   -34.2998 -34.2771 -34.2771 -34.2714 -34.2703 -34.2703 -34.2647 -34.2646
   -34.2594 -34.2594 -34.2482 -34.2482 -34.2469 -34.2075 -34.2008 -34.2008
   -13.1506 -13.1506 -13.0448 -12.4797 -12.3182 -12.3181 -11.9993 -11.9993
   -11.9561 -11.9301 -11.9301 -11.8844 -11.8844 -11.7854 -11.7854 -11.7250
   -11.6587 -11.6587 -11.5061 -11.5061 -11.4913 -11.4913 -11.4746 -11.4745
   -11.4493 -11.4493 -11.4321 -11.3168 -11.3152 -11.3152 -11.2907 -11.2245
    -4.7375  -4.7375  -4.7372  -4.7371  -4.7210  -4.7210  -4.7139  -4.6424
    -4.6424  -4.6148  -4.6148  -4.5977  -4.5387  -4.4549  -4.3561  -4.3561
    -4.2711  -4.2710  -4.2431  -3.9462  -3.9000  -3.8999  -3.7730  -3.7730
    -3.7164  -3.7164  -3.3598  -3.2882  -3.2882  -3.2607  -3.2430  -3.2430
    -3.2309  -3.2309  -3.1943  -3.1943  -3.1635  -3.1583  -3.1583  -3.0940
    -3.0940  -2.8852  -2.8511  -2.6820  -2.5368  -2.5368  -2.5107  -2.5107
    -2.4903  -2.4903  -2.4808  -2.4808  -2.4630  -2.4630  -2.4364  -2.4270
    -2.4102  -2.4102  -2.2112  -2.1503  -1.9788  -1.9788  -1.9308  -1.7036
    -1.7036  -1.6054  -1.5873  -1.5873  -1.5453  -1.4698  -1.3401  -1.3401
    -1.3380  -1.3380  -1.3057  -1.2382  -1.1967  -1.1967  -1.0827  -1.0827
    -1.0398  -1.0398  -0.9965  -0.9965  -0.9937  -0.9937  -0.8838  -0.8838
    -0.8356  -0.8356  -0.4212  -0.4212  -0.3505  -0.3505  -0.3453  -0.2975
    -0.1468  -0.1468  -0.1405  -0.1405  -0.1226  -0.1226  -0.0886  -0.0346
    -0.0346   0.2981   0.2981   0.3604   0.4008   0.4959   0.4959   0.6145
     2.2950   2.5935   2.5935   2.6082   2.6842   2.7804   2.7805   2.7824
     2.7824   2.8132   2.8132   2.8393   2.8393   2.9594   3.0861   3.0861
     3.0956   3.1013   3.1142   3.1142   3.1367   3.1367   3.1375   3.1375
     3.1393   3.1393   3.1997   3.1997   3.2478   3.2617   3.3481   3.3481
     3.3556   3.3556   3.6090   3.6090   3.7282   3.7428   3.8476   3.8476
     3.9600   3.9600   4.0173   4.0446   4.1320   4.1321   4.1419   4.1419
     4.1532   4.1983   4.1983   4.7062

     occupation numbers 
     1.0000   1.0000   1.0000   1.0000   1.0000   1.0000   1.0000   1.0000
     1.0000   1.0000   1.0000   1.0000   1.0000   1.0000   1.0000   1.0000
     1.0000   1.0000   1.0000   1.0000   1.0000   1.0000   1.0000   1.0000
     1.0000   1.0000   1.0000   1.0000   1.0000   1.0000   1.0000   1.0000
     1.0000   1.0000   1.0000   1.0000   1.0000   1.0000   1.0000   1.0000
     1.0000   1.0000   1.0000   1.0000   1.0000   1.0000   1.0000   1.0000
     1.0000   1.0000   1.0000   1.0000   1.0000   1.0000   1.0000   1.0000
     1.0000   1.0000   1.0000   1.0000   1.0000   1.0000   1.0000   1.0000
     1.0000   1.0000   1.0000   1.0000   1.0000   1.0000   1.0000   1.0000
     1.0000   1.0000   1.0000   1.0000   1.0000   1.0000   1.0000   1.0000
     1.0000   1.0000   1.0000   1.0000   1.0000   1.0000   1.0000   1.0000
     1.0000   1.0000   1.0000   1.0000   1.0000   1.0000   1.0000   1.0000
     1.0000   1.0000   1.0000   1.0000   1.0000   1.0000   1.0000   1.0000
     1.0000   1.0000   1.0000   1.0000   1.0000   1.0000   1.0000   1.0000
     1.0000   1.0000   1.0000   1.0000   1.0000   1.0000   1.0000   1.0000
     1.0000   1.0000   1.0000   1.0000   1.0000   1.0000   1.0000   1.0000
     1.0000   1.0000   1.0000   1.0000   1.0000   1.0000   1.0000   1.0000
     1.0000   1.0000   1.0000   1.0000   1.0000   1.0000   1.0000   1.0000
     1.0000   1.0000   1.0000   1.0000   1.0000   1.0000   1.0000   1.0000
     1.0000   1.0000   1.0000   1.0000   1.0000   1.0000   1.0000   1.0000
     1.0000   1.0000   1.0000   1.0000   1.0000   1.0000   1.0000   1.0000
     1.0000   1.0000   1.0000   1.0000   1.0000   1.0000   1.0000   1.0000
     1.0000   1.0000   1.0000   1.0000   1.0000   1.0000   1.0000   1.0000
     1.0000   1.0000   1.0000   1.0000   1.0000   1.0000   1.0000   1.0000
     1.0000   1.0000   1.0000   1.0000   1.0000   1.0000   1.0000   1.0000
     1.0000   1.0000   1.0000   1.0000   1.0000   1.0000   1.0000   1.0000
     0.0000   0.0000   0.0000   0.0000   0.0000   0.0000   0.0000   0.0000
     0.0000   0.0000   0.0000   0.0000   0.0000   0.0000   0.0000   0.0000
     0.0000   0.0000   0.0000   0.0000   0.0000   0.0000   0.0000   0.0000
     0.0000   0.0000   0.0000   0.0000   0.0000   0.0000   0.0000   0.0000
     0.0000   0.0000   0.0000   0.0000   0.0000   0.0000   0.0000   0.0000
     0.0000   0.0000   0.0000   0.0000   0.0000   0.0000   0.0000   0.0000
     0.0000   0.0000   0.0000   0.0000

          k = 0.2917 0.5052 0.0000 (126383 PWs)   bands (ev):

   -60.2492 -60.2468 -60.2468 -60.2330 -60.2330 -60.2300 -60.2244 -60.2244
   -60.2226 -60.2225 -60.2220 -60.2220 -60.2168 -60.2162 -60.2162 -60.2140
   -34.5236 -34.5128 -34.5128 -34.5028 -34.5028 -34.4891 -34.4891 -34.4797
   -34.4797 -34.4602 -34.4124 -34.4123 -34.3888 -34.3888 -34.3708 -34.3659
   -34.3659 -34.3382 -34.3382 -34.3321 -34.3316 -34.3316 -34.3209 -34.3209
   -34.3171 -34.3171 -34.3159 -34.3159 -34.3135 -34.3054 -34.3043 -34.3043
   -34.2998 -34.2776 -34.2776 -34.2704 -34.2704 -34.2642 -34.2640 -34.2640
   -34.2640 -34.2640 -34.2508 -34.2508 -34.2399 -34.2051 -34.2051 -34.1987
   -13.1866 -13.0797 -13.0797 -12.4245 -12.4245 -12.2670 -12.0140 -11.9704
   -11.9704 -11.9520 -11.9520 -11.8429 -11.8429 -11.8052 -11.8052 -11.7024
   -11.7024 -11.6375 -11.5167 -11.5167 -11.4814 -11.4705 -11.4705 -11.4596
   -11.4596 -11.4496 -11.4496 -11.3203 -11.3171 -11.3003 -11.3003 -11.2246
    -4.7829  -4.7717  -4.7717  -4.7136  -4.6794  -4.6608  -4.6608  -4.6455
    -4.6455  -4.6411  -4.6411  -4.5721  -4.5721  -4.4175  -4.4174  -4.3328
    -4.2821  -4.2499  -4.2499  -3.9453  -3.8685  -3.8685  -3.8303  -3.8303
    -3.6911  -3.6911  -3.3567  -3.3038  -3.2657  -3.2657  -3.2536  -3.2536
    -3.2179  -3.2179  -3.1961  -3.1961  -3.1686  -3.1686  -3.1664  -3.1445
    -2.9383  -2.9383  -2.8890  -2.6284  -2.6284  -2.5762  -2.5002  -2.5002
    -2.4887  -2.4603  -2.4603  -2.4555  -2.4555  -2.4542  -2.4542  -2.4465
    -2.4071  -2.4071  -2.2118  -2.1014  -2.1014  -1.9057  -1.8164  -1.8164
    -1.7393  -1.6362  -1.6362  -1.4725  -1.4688  -1.4685  -1.4685  -1.3791
    -1.3044  -1.3044  -1.2808  -1.2175  -1.2175  -1.1953  -1.1448  -1.1448
    -1.0246  -1.0246  -0.9381  -0.9381  -0.9267  -0.9267  -0.9237  -0.9237
    -0.8757  -0.8757  -0.4371  -0.3759  -0.3759  -0.3669  -0.3179  -0.3179
    -0.1591  -0.1591  -0.1525  -0.1156  -0.1156  -0.0727  -0.0727  -0.0651
    -0.0651   0.2888   0.3333   0.3333   0.4330   0.4330   0.5259   0.6136
     2.2956   2.5938   2.6011   2.6011   2.7229   2.7229   2.7895   2.7895
     2.8011   2.8158   2.8158   2.8322   2.8322   2.9979   2.9979   3.0990
     3.0990   3.1149   3.1149   3.1159   3.1159   3.1246   3.1385   3.1484
     3.1743   3.1743   3.1846   3.1846   3.2879   3.2879   3.2915   3.2915
     3.3681   3.3893   3.5819   3.6892   3.6892   3.7274   3.7926   3.9594
     3.9595   4.0130   4.0130   4.0266   4.0266   4.0898   4.0898   4.1523
     4.1949   4.1949   4.2640   4.7509

     occupation numbers 
     1.0000   1.0000   1.0000   1.0000   1.0000   1.0000   1.0000   1.0000
     1.0000   1.0000   1.0000   1.0000   1.0000   1.0000   1.0000   1.0000
     1.0000   1.0000   1.0000   1.0000   1.0000   1.0000   1.0000   1.0000
     1.0000   1.0000   1.0000   1.0000   1.0000   1.0000   1.0000   1.0000
     1.0000   1.0000   1.0000   1.0000   1.0000   1.0000   1.0000   1.0000
     1.0000   1.0000   1.0000   1.0000   1.0000   1.0000   1.0000   1.0000
     1.0000   1.0000   1.0000   1.0000   1.0000   1.0000   1.0000   1.0000
     1.0000   1.0000   1.0000   1.0000   1.0000   1.0000   1.0000   1.0000
     1.0000   1.0000   1.0000   1.0000   1.0000   1.0000   1.0000   1.0000
     1.0000   1.0000   1.0000   1.0000   1.0000   1.0000   1.0000   1.0000
     1.0000   1.0000   1.0000   1.0000   1.0000   1.0000   1.0000   1.0000
     1.0000   1.0000   1.0000   1.0000   1.0000   1.0000   1.0000   1.0000
     1.0000   1.0000   1.0000   1.0000   1.0000   1.0000   1.0000   1.0000
     1.0000   1.0000   1.0000   1.0000   1.0000   1.0000   1.0000   1.0000
     1.0000   1.0000   1.0000   1.0000   1.0000   1.0000   1.0000   1.0000
     1.0000   1.0000   1.0000   1.0000   1.0000   1.0000   1.0000   1.0000
     1.0000   1.0000   1.0000   1.0000   1.0000   1.0000   1.0000   1.0000
     1.0000   1.0000   1.0000   1.0000   1.0000   1.0000   1.0000   1.0000
     1.0000   1.0000   1.0000   1.0000   1.0000   1.0000   1.0000   1.0000
     1.0000   1.0000   1.0000   1.0000   1.0000   1.0000   1.0000   1.0000
     1.0000   1.0000   1.0000   1.0000   1.0000   1.0000   1.0000   1.0000
     1.0000   1.0000   1.0000   1.0000   1.0000   1.0000   1.0000   1.0000
     1.0000   1.0000   1.0000   1.0000   1.0000   1.0000   1.0000   1.0000
     1.0000   1.0000   1.0000   1.0000   1.0000   1.0000   1.0000   1.0000
     1.0000   1.0000   1.0000   1.0000   1.0000   1.0000   1.0000   1.0000
     1.0000   1.0000   1.0000   1.0000   1.0000   1.0000   1.0000   1.0000
     0.0000   0.0000   0.0000   0.0000   0.0000   0.0000   0.0000   0.0000
     0.0000   0.0000   0.0000   0.0000   0.0000   0.0000   0.0000   0.0000
     0.0000   0.0000   0.0000   0.0000   0.0000   0.0000   0.0000   0.0000
     0.0000   0.0000   0.0000   0.0000   0.0000   0.0000   0.0000   0.0000
     0.0000   0.0000   0.0000   0.0000   0.0000   0.0000   0.0000   0.0000
     0.0000   0.0000   0.0000   0.0000   0.0000   0.0000   0.0000   0.0000
     0.0000   0.0000   0.0000   0.0000

          k = 0.2917 0.5533 0.0000 (126391 PWs)   bands (ev):

   -60.2484 -60.2476 -60.2468 -60.2330 -60.2320 -60.2310 -60.2238 -60.2236
   -60.2232 -60.2227 -60.2224 -60.2222 -60.2166 -60.2164 -60.2161 -60.2139
   -34.5203 -34.5167 -34.5133 -34.4983 -34.4956 -34.4937 -34.4879 -34.4863
   -34.4832 -34.4586 -34.4145 -34.4046 -34.3967 -34.3881 -34.3692 -34.3676
   -34.3660 -34.3383 -34.3362 -34.3341 -34.3319 -34.3254 -34.3196 -34.3194
   -34.3191 -34.3184 -34.3175 -34.3167 -34.3164 -34.3050 -34.3046 -34.3041
   -34.2997 -34.2750 -34.2727 -34.2726 -34.2684 -34.2682 -34.2663 -34.2632
   -34.2597 -34.2554 -34.2552 -34.2510 -34.2474 -34.2051 -34.2029 -34.2007
   -13.1535 -13.1179 -13.0826 -12.4266 -12.3727 -12.3201 -12.0005 -11.9860
   -11.9716 -11.9159 -11.9006 -11.8795 -11.8516 -11.8311 -11.8185 -11.7032
   -11.6811 -11.6594 -11.5016 -11.4966 -11.4862 -11.4776 -11.4700 -11.4672
   -11.4636 -11.4594 -11.4452 -11.3145 -11.3133 -11.3066 -11.2985 -11.2233
    -4.7397  -4.7354  -4.7299  -4.7185  -4.6983  -4.6938  -4.6862  -4.6572
    -4.6506  -4.6471  -4.6453  -4.6094  -4.5747  -4.4234  -4.3904  -4.3621
    -4.2671  -4.2562  -4.2467  -3.9215  -3.8556  -3.8428  -3.8132  -3.7816
    -3.7540  -3.7351  -3.3813  -3.2923  -3.2796  -3.2705  -3.2397  -3.2356
    -3.2277  -3.2164  -3.2114  -3.2041  -3.1672  -3.1652  -3.1569  -3.0848
    -3.0082  -2.9266  -2.8946  -2.6234  -2.5660  -2.5470  -2.5088  -2.5052
    -2.4827  -2.4785  -2.4737  -2.4727  -2.4673  -2.4672  -2.4524  -2.4424
    -2.4402  -2.4246  -2.2047  -2.0920  -2.0349  -1.9696  -1.8163  -1.7071
    -1.7015  -1.6727  -1.6398  -1.5866  -1.4770  -1.4735  -1.4040  -1.3480
    -1.3412  -1.3229  -1.3113  -1.2237  -1.2098  -1.2024  -1.0695  -1.0551
    -1.0004  -0.9941  -0.9929  -0.9650  -0.9614  -0.9590  -0.9235  -0.9223
    -0.9176  -0.8967  -0.4121  -0.3916  -0.3662  -0.3458  -0.3293  -0.3114
    -0.1453  -0.1329  -0.1329  -0.1270  -0.1134  -0.1038  -0.0956  -0.0685
    -0.0660   0.3047   0.3195   0.3403   0.4360   0.4677   0.4986   0.6216
     2.2857   2.5902   2.5927   2.5977   2.7179   2.7503   2.7766   2.7942
     2.8033   2.8047   2.8191   2.8226   2.8281   3.0010   3.0434   3.0905
     3.1008   3.1071   3.1094   3.1157   3.1215   3.1329   3.1361   3.1365
     3.1553   3.1595   3.1760   3.1793   3.2772   3.2929   3.3108   3.3244
     3.3376   3.3572   3.6183   3.6543   3.6992   3.7248   3.8463   3.9021
     3.9589   4.0187   4.0232   4.0761   4.0845   4.0946   4.1373   4.1406
     4.1462   4.1617   4.2046   4.7532

     occupation numbers 
     1.0000   1.0000   1.0000   1.0000   1.0000   1.0000   1.0000   1.0000
     1.0000   1.0000   1.0000   1.0000   1.0000   1.0000   1.0000   1.0000
     1.0000   1.0000   1.0000   1.0000   1.0000   1.0000   1.0000   1.0000
     1.0000   1.0000   1.0000   1.0000   1.0000   1.0000   1.0000   1.0000
     1.0000   1.0000   1.0000   1.0000   1.0000   1.0000   1.0000   1.0000
     1.0000   1.0000   1.0000   1.0000   1.0000   1.0000   1.0000   1.0000
     1.0000   1.0000   1.0000   1.0000   1.0000   1.0000   1.0000   1.0000
     1.0000   1.0000   1.0000   1.0000   1.0000   1.0000   1.0000   1.0000
     1.0000   1.0000   1.0000   1.0000   1.0000   1.0000   1.0000   1.0000
     1.0000   1.0000   1.0000   1.0000   1.0000   1.0000   1.0000   1.0000
     1.0000   1.0000   1.0000   1.0000   1.0000   1.0000   1.0000   1.0000
     1.0000   1.0000   1.0000   1.0000   1.0000   1.0000   1.0000   1.0000
     1.0000   1.0000   1.0000   1.0000   1.0000   1.0000   1.0000   1.0000
     1.0000   1.0000   1.0000   1.0000   1.0000   1.0000   1.0000   1.0000
     1.0000   1.0000   1.0000   1.0000   1.0000   1.0000   1.0000   1.0000
     1.0000   1.0000   1.0000   1.0000   1.0000   1.0000   1.0000   1.0000
     1.0000   1.0000   1.0000   1.0000   1.0000   1.0000   1.0000   1.0000
     1.0000   1.0000   1.0000   1.0000   1.0000   1.0000   1.0000   1.0000
     1.0000   1.0000   1.0000   1.0000   1.0000   1.0000   1.0000   1.0000
     1.0000   1.0000   1.0000   1.0000   1.0000   1.0000   1.0000   1.0000
     1.0000   1.0000   1.0000   1.0000   1.0000   1.0000   1.0000   1.0000
     1.0000   1.0000   1.0000   1.0000   1.0000   1.0000   1.0000   1.0000
     1.0000   1.0000   1.0000   1.0000   1.0000   1.0000   1.0000   1.0000
     1.0000   1.0000   1.0000   1.0000   1.0000   1.0000   1.0000   1.0000
     1.0000   1.0000   1.0000   1.0000   1.0000   1.0000   1.0000   1.0000
     1.0000   1.0000   1.0000   1.0000   1.0000   1.0000   1.0000   1.0000
     0.0000   0.0000   0.0000   0.0000   0.0000   0.0000   0.0000   0.0000
     0.0000   0.0000   0.0000   0.0000   0.0000   0.0000   0.0000   0.0000
     0.0000   0.0000   0.0000   0.0000   0.0000   0.0000   0.0000   0.0000
     0.0000   0.0000   0.0000   0.0000   0.0000   0.0000   0.0000   0.0000
     0.0000   0.0000   0.0000   0.0000   0.0000   0.0000   0.0000   0.0000
     0.0000   0.0000   0.0000   0.0000   0.0000   0.0000   0.0000   0.0000
     0.0000   0.0000   0.0000   0.0000

          k = 0.3333 0.5774 0.0000 (126429 PWs)   bands (ev):

   -60.2477 -60.2477 -60.2476 -60.2320 -60.2320 -60.2320 -60.2230 -60.2230
   -60.2230 -60.2230 -60.2230 -60.2229 -60.2163 -60.2163 -60.2163 -60.2139
   -34.5169 -34.5169 -34.5169 -34.4910 -34.4910 -34.4910 -34.4910 -34.4910
   -34.4910 -34.4577 -34.4157 -34.3964 -34.3963 -34.3963 -34.3677 -34.3677
   -34.3676 -34.3362 -34.3362 -34.3362 -34.3256 -34.3256 -34.3256 -34.3180
   -34.3179 -34.3179 -34.3179 -34.3179 -34.3179 -34.3046 -34.3046 -34.3046
   -34.2997 -34.2705 -34.2705 -34.2705 -34.2704 -34.2704 -34.2704 -34.2553
   -34.2553 -34.2553 -34.2550 -34.2550 -34.2550 -34.2028 -34.2028 -34.2028
   -13.1194 -13.1194 -13.1194 -12.3737 -12.3737 -12.3737 -11.9866 -11.9866
   -11.9866 -11.8660 -11.8660 -11.8660 -11.8660 -11.8660 -11.8659 -11.6814
   -11.6814 -11.6814 -11.4821 -11.4820 -11.4820 -11.4820 -11.4820 -11.4820
   -11.4572 -11.4571 -11.4571 -11.3133 -11.3057 -11.3057 -11.3057 -11.2226
    -4.7208  -4.6948  -4.6948  -4.6948  -4.6938  -4.6938  -4.6938  -4.6938
    -4.6938  -4.6938  -4.6108  -4.6108  -4.6107  -4.3934  -4.3934  -4.3934
    -4.2544  -4.2544  -4.2544  -3.9084  -3.7973  -3.7973  -3.7973  -3.7973
    -3.7973  -3.7973  -3.3940  -3.2819  -3.2819  -3.2819  -3.2224  -3.2224
    -3.2224  -3.2224  -3.2224  -3.2224  -3.1645  -3.1645  -3.1645  -3.0028
    -3.0028  -3.0028  -2.8982  -2.5634  -2.5634  -2.5634  -2.5146  -2.5146
    -2.5146  -2.4660  -2.4660  -2.4660  -2.4556  -2.4556  -2.4556  -2.4556
    -2.4556  -2.4556  -2.2012  -2.0302  -2.0302  -2.0302  -1.7013  -1.7013
    -1.7013  -1.6744  -1.6744  -1.6744  -1.4809  -1.4061  -1.4061  -1.4061
    -1.3266  -1.3266  -1.3266  -1.2128  -1.2128  -1.2128  -0.9830  -0.9830
    -0.9830  -0.9830  -0.9830  -0.9830  -0.9592  -0.9592  -0.9592  -0.9592
    -0.9592  -0.9592  -0.3869  -0.3869  -0.3869  -0.3265  -0.3265  -0.3265
    -0.1320  -0.1320  -0.1320  -0.0989  -0.0989  -0.0989  -0.0988  -0.0988
    -0.0988   0.3229   0.3229   0.3229   0.4691   0.4691   0.4691   0.6254
     2.2809   2.5910   2.5910   2.5910   2.7481   2.7481   2.7481   2.8119
     2.8120   2.8120   2.8120   2.8120   2.8120   3.0453   3.0453   3.0453
     3.1079   3.1079   3.1079   3.1191   3.1191   3.1191   3.1564   3.1564
     3.1564   3.1564   3.1564   3.1564   3.3054   3.3054   3.3054   3.3251
     3.3251   3.3251   3.6592   3.6592   3.6592   3.7234   3.9016   3.9016
     3.9016   4.0810   4.0810   4.0810   4.0810   4.0811   4.0811   4.1490
     4.1490   4.1490   4.1662   4.7981

     occupation numbers 
     1.0000   1.0000   1.0000   1.0000   1.0000   1.0000   1.0000   1.0000
     1.0000   1.0000   1.0000   1.0000   1.0000   1.0000   1.0000   1.0000
     1.0000   1.0000   1.0000   1.0000   1.0000   1.0000   1.0000   1.0000
     1.0000   1.0000   1.0000   1.0000   1.0000   1.0000   1.0000   1.0000
     1.0000   1.0000   1.0000   1.0000   1.0000   1.0000   1.0000   1.0000
     1.0000   1.0000   1.0000   1.0000   1.0000   1.0000   1.0000   1.0000
     1.0000   1.0000   1.0000   1.0000   1.0000   1.0000   1.0000   1.0000
     1.0000   1.0000   1.0000   1.0000   1.0000   1.0000   1.0000   1.0000
     1.0000   1.0000   1.0000   1.0000   1.0000   1.0000   1.0000   1.0000
     1.0000   1.0000   1.0000   1.0000   1.0000   1.0000   1.0000   1.0000
     1.0000   1.0000   1.0000   1.0000   1.0000   1.0000   1.0000   1.0000
     1.0000   1.0000   1.0000   1.0000   1.0000   1.0000   1.0000   1.0000
     1.0000   1.0000   1.0000   1.0000   1.0000   1.0000   1.0000   1.0000
     1.0000   1.0000   1.0000   1.0000   1.0000   1.0000   1.0000   1.0000
     1.0000   1.0000   1.0000   1.0000   1.0000   1.0000   1.0000   1.0000
     1.0000   1.0000   1.0000   1.0000   1.0000   1.0000   1.0000   1.0000
     1.0000   1.0000   1.0000   1.0000   1.0000   1.0000   1.0000   1.0000
     1.0000   1.0000   1.0000   1.0000   1.0000   1.0000   1.0000   1.0000
     1.0000   1.0000   1.0000   1.0000   1.0000   1.0000   1.0000   1.0000
     1.0000   1.0000   1.0000   1.0000   1.0000   1.0000   1.0000   1.0000
     1.0000   1.0000   1.0000   1.0000   1.0000   1.0000   1.0000   1.0000
     1.0000   1.0000   1.0000   1.0000   1.0000   1.0000   1.0000   1.0000
     1.0000   1.0000   1.0000   1.0000   1.0000   1.0000   1.0000   1.0000
     1.0000   1.0000   1.0000   1.0000   1.0000   1.0000   1.0000   1.0000
     1.0000   1.0000   1.0000   1.0000   1.0000   1.0000   1.0000   1.0000
     1.0000   1.0000   1.0000   1.0000   1.0000   1.0000   1.0000   1.0000
     0.0000   0.0000   0.0000   0.0000   0.0000   0.0000   0.0000   0.0000
     0.0000   0.0000   0.0000   0.0000   0.0000   0.0000   0.0000   0.0000
     0.0000   0.0000   0.0000   0.0000   0.0000   0.0000   0.0000   0.0000
     0.0000   0.0000   0.0000   0.0000   0.0000   0.0000   0.0000   0.0000
     0.0000   0.0000   0.0000   0.0000   0.0000   0.0000   0.0000   0.0000
     0.0000   0.0000   0.0000   0.0000   0.0000   0.0000   0.0000   0.0000
     0.0000   0.0000   0.0000   0.0000

     highest occupied, lowest unoccupied level (ev):     0.6716    2.2809

     Writing all to output data dir /home/nihal/Desktop/Otptf/Trial_2.save/ :
     XML data file, pseudopotentials, collected wavefunctions

     init_run     :      3.41s CPU      4.26s WALL (       1 calls)
     electrons    :  12605.84s CPU  -7034.60s WALL (       1 calls)

     Called by init_run:
     wfcinit      :      0.00s CPU      0.00s WALL (       1 calls)
     wfcinit:atom :      1.57s CPU      1.78s WALL (      61 calls)
     wfcinit:wfcr :    370.25s CPU -19423.57s WALL (      61 calls)
     potinit      :      0.53s CPU      0.64s WALL (       1 calls)
     hinit0       :      0.54s CPU      0.57s WALL (       1 calls)

     Called by electrons:
     c_bands      :  12605.84s CPU  -7034.60s WALL (       1 calls)
     v_of_rho     :      0.37s CPU      0.43s WALL (       1 calls)
     v_h          :      0.03s CPU      0.04s WALL (       1 calls)
     v_xc         :      0.34s CPU      0.39s WALL (       1 calls)
     newd         :      1.54s CPU      2.22s WALL (       1 calls)

     Called by c_bands:
     init_us_2    :      6.53s CPU      6.60s WALL (      61 calls)
     cegterg      :  12182.76s CPU  12334.89s WALL (      61 calls)

     Called by sum_band:

     Called by *egterg:
     cdiaghg      :   6783.42s CPU   6845.44s WALL (     838 calls)
     cegterg:over :   1879.59s CPU   1881.96s WALL (     777 calls)
     cegterg:upda :   1101.08s CPU   1121.02s WALL (     777 calls)
     cegterg:last :    125.56s CPU    125.69s WALL (      61 calls)
     cdiaghg:chol :    218.51s CPU    218.55s WALL (     838 calls)
     cdiaghg:inve :     60.07s CPU     60.08s WALL (     838 calls)
     cdiaghg:para :   1090.45s CPU   1124.78s WALL (    1676 calls)
     h_psi        :   1901.16s CPU -17845.63s WALL (     899 calls)
     s_psi        :    334.04s CPU    334.11s WALL (     899 calls)
     g_psi        :      8.17s CPU      8.17s WALL (     777 calls)

     Called by h_psi:
     h_psi:calbec :    543.24s CPU    543.68s WALL (     899 calls)
     vloc_psi     :   1015.84s CPU -18740.18s WALL (     899 calls)
                                        0.00s GPU  (     899 calls)
     add_vuspsi   :    333.31s CPU    333.35s WALL (     899 calls)

     General routines
     calbec       :    543.24s CPU    543.67s WALL (     899 calls)
     fft          :      0.69s CPU      0.73s WALL (      13 calls)
     ffts         :      0.09s CPU      0.09s WALL (       1 calls)
     fftw         :    804.35s CPU -18956.66s WALL (  349994 calls)
     interpolate  :      0.12s CPU      0.13s WALL (       1 calls)
     davcio       :      0.14s CPU     24.84s WALL (     122 calls)

     Parallel routines

     PWSCF        :      3h30m CPU     *****s WALL


   This run was terminated on:   6: 5:38   5Jul2026            

=------------------------------------------------------------------------------=
   JOB DONE.
=------------------------------------------------------------------------------=
